&CONTROL
	calculation = 'vc-relax'
	restart_mode = 'from_scratch'
	prefix = 'C2Cn'
	pseudo_dir ='./pseudo/'
	outdir='./TMP_DIR/'
	etot_conv_thr = 1.0E-5		
	forc_conv_thr = 1.94E-4
	tstress = .true.		
/
&SYSTEM
	ibrav = 0,
	celldm(1) = 33.23461096
	nat= 98,
	ntyp= 5,
	ecutwfc = 40.0
	nbnd = 245
	occupations = 'from_input' 
	nspin = 2,			! required for spin polarized calc
	starting_magnetization(3) = 1
	vdw_corr = 'Grimme-D3'
/
&ELECTRONS
	diagonalization = 'cg'
	conv_thr = 1.0E-6		! get to -12
/
&IONS
	ion_dynamics="bfgs"
/
&CELL
	cell_dofree = "2Dxy"
	cell_dynamics = 'bfgs'
	press = 0.0
	press_conv_thr = 0.1
	cell_factor = 4.0
/

ATOMIC_SPECIES
  B  10 B.pbe-n-kjpaw_psl.1.0.0.UPF
  N  14 N.pbe-n-kjpaw_psl.1.0.0.UPF
  C1 12 C.pbe-n-kjpaw_psl.1.0.0.UPF
  C2 12 C.pbe-n-kjpaw_psl.1.0.0.UPF
  C3 12 C.pbe-n-kjpaw_psl.1.0.0.UPF

ATOMIC_POSITIONS {crystal}
B        0.047399355   0.094874846   0.500000000
B        0.047705864   0.238050307   0.500000000
B        0.047639344   0.381017531   0.500000000
B        0.047240739   0.523723798   0.500000000
B        0.047536723   0.666623407   0.500000000
B        0.047815292   0.809608283   0.500000000
B        0.047660513   0.952339235   0.500000000
B        0.190055963   0.094520810   0.500000000
B        0.189764119   0.237093466   0.500000000
B        0.190935025   0.381101736   0.500000000
B        0.189772328   0.524023896   0.500000000
B        0.189632583   0.666875847   0.500000000
B        0.190340571   0.809659430   0.500000000
B        0.190391643   0.952184548   0.500000000
B        0.333313364   0.094528108   0.500000000
B        0.332846255   0.236190569   0.500000000
B        0.332527871   0.377756981   0.500000000
B        0.333144399   0.526640911   0.500000000
B        0.331793228   0.668206946   0.500000000
B        0.333124294   0.810367530   0.500000000
B        0.333376620   0.952463181   0.500000000
B        0.476335866   0.095261962   0.500000000
B        0.476303950   0.238079205   0.500000000
B        0.475632370   0.380668673   0.500000000
C2       0.476881576   0.523118217   0.500000000
B        0.473359013   0.666855938   0.500000000
B        0.475976201   0.810227764   0.500000000
B        0.476276248   0.952759209   0.500000000
B        0.618990529   0.095208145   0.500000000
B        0.619103823   0.238100058   0.500000000
B        0.619023813   0.380976115   0.500000000
B        0.619331312   0.524367608   0.500000000
B        0.622243529   0.667472435   0.500000000
B        0.618898329   0.809065124   0.500000000
B        0.618982486   0.952360653   0.500000000
B        0.761857911   0.095181579   0.500000000
B        0.761878350   0.238121630   0.500000000
B        0.761899940   0.380896185   0.500000000
B        0.761920896   0.523696126   0.500000000
B        0.763809538   0.667153841   0.500000000
B        0.762906650   0.810236008   0.500000000
B        0.761949716   0.952294126   0.500000000
B        0.904838188   0.095161650   0.500000000
B        0.904818310   0.238142027   0.500000000
B        0.904791777   0.381009468   0.500000000
B        0.904738023   0.523664236   0.500000000
B        0.905471864   0.666686729   0.500000000
B        0.905479142   0.809944028   0.500000000
B        0.905125022   0.952600444   0.500000000
N        0.095023583   0.047324133   0.500000000
N        0.094769873   0.189910189   0.500000000
N        0.095537875   0.333477568   0.500000000
N        0.094725279   0.476157316   0.500000000
N        0.094669761   0.618936632   0.500000000
N        0.095179134   0.761903208   0.500000000
N        0.095255931   0.904744019   0.500000000
N        0.238023392   0.047270815   0.500000000
N        0.237672690   0.189591915   0.500000000
N        0.237440852   0.332021460   0.500000000
N        0.237855316   0.476827985   0.500000000
N        0.236807413   0.619372022   0.500000000
N        0.237789444   0.762210700   0.500000000
N        0.238096802   0.904820843   0.500000000
N        0.381121865   0.047464970   0.500000000
N        0.381016032   0.189576133   0.500000000
N        0.380534379   0.331121647   0.500000000
C1       0.384544749   0.477324716   0.500000000
N        0.378766501   0.621233706   0.500000000
N        0.380628260   0.763192767   0.500000000
N        0.381063478   0.905330242   0.500000000
N        0.523912858   0.047835245   0.500000000
N        0.523921781   0.190566828   0.500000000
N        0.523821165   0.333617701   0.500000000
N        0.523360803   0.476639160   0.500000000
C3       0.522675189   0.615455048   0.500000000
N        0.523172260   0.762144963   0.500000000
N        0.523842839   0.905274623   0.500000000
N        0.666637262   0.047605794   0.500000000
N        0.666662132   0.190471946   0.500000000
N        0.666629551   0.333370505   0.500000000
N        0.666382444   0.476179053   0.500000000
N        0.668878589   0.619465735   0.500000000
N        0.667978740   0.762559365   0.500000000
N        0.666522406   0.904462002   0.500000000
N        0.809519962   0.047578735   0.500000000
N        0.809513168   0.190486731   0.500000000
N        0.809527993   0.333337848   0.500000000
N        0.809433097   0.476078289   0.500000000
N        0.810423631   0.618983983   0.500000000
N        0.810407790   0.762327212   0.500000000
N        0.810089491   0.905229875   0.500000000
N        0.952404595   0.047595167   0.500000000
N        0.952421041   0.190479855   0.500000000
N        0.952394005   0.333362670   0.500000000
N        0.952164637   0.476087162   0.500000000
N        0.952534901   0.618878191   0.500000000
N        0.952728960   0.761976554   0.500000000
N        0.952675631   0.904976231   0.500000000


K_POINTS gamma

CELL_PARAMETERS alat
   1.000615198  -0.000339713   0.000000000
  -0.500601799   0.866388291   0.000000000
   0.000000000   0.000000000   1.137203616
 

OCCUPATIONS
  1.0 1.0 1.0 1.0 1.0 1.0 1.0 1.0
  1.0 1.0 1.0 1.0 1.0 1.0 1.0 1.0
  1.0 1.0 1.0 1.0 1.0 1.0 1.0 1.0
  1.0 1.0 1.0 1.0 1.0 1.0 1.0 1.0
  1.0 1.0 1.0 1.0 1.0 1.0 1.0 1.0
  1.0 1.0 1.0 1.0 1.0 1.0 1.0 1.0
  1.0 1.0 1.0 1.0 1.0 1.0 1.0 1.0
  1.0 1.0 1.0 1.0 1.0 1.0 1.0 1.0
  1.0 1.0 1.0 1.0 1.0 1.0 1.0 1.0
  1.0 1.0 1.0 1.0 1.0 1.0 1.0 1.0
  1.0 1.0 1.0 1.0 1.0 1.0 1.0 1.0
  1.0 1.0 1.0 1.0 1.0 1.0 1.0 1.0
  1.0 1.0 1.0 1.0 1.0 1.0 1.0 1.0
  1.0 1.0 1.0 1.0 1.0 1.0 1.0 1.0
  1.0 1.0 1.0 1.0 1.0 1.0 1.0 1.0
  1.0 1.0 1.0 1.0 1.0 1.0 1.0 1.0
  1.0 1.0 1.0 1.0 1.0 1.0 1.0 1.0
  1.0 1.0 1.0 1.0 1.0 1.0 1.0 1.0
  1.0 1.0 1.0 1.0 1.0 1.0 1.0 1.0
  1.0 1.0 1.0 1.0 1.0 1.0 1.0 1.0
  1.0 1.0 1.0 1.0 1.0 1.0 1.0 1.0
  1.0 1.0 1.0 1.0 1.0 1.0 1.0 1.0
  1.0 1.0 1.0 1.0 1.0 1.0 1.0 1.0
  1.0 1.0 1.0 1.0 1.0 1.0 1.0 1.0
  1.0 1.0 1.0 1.0 0.0 0.0 0.0 0.0
  0.0 0.0 0.0 0.0 0.0 0.0 0.0 0.0
  0.0 0.0 0.0 0.0 0.0 0.0 0.0 0.0
  0.0 0.0 0.0 0.0 0.0 0.0 0.0 0.0
  0.0 0.0 0.0 0.0 0.0 0.0 0.0 0.0
  0.0 0.0 0.0 0.0 0.0 0.0 0.0 0.0
  0.0 0.0 0.0 0.0 0.0
  1.0 1.0 1.0 1.0 1.0 1.0 1.0 1.0
  1.0 1.0 1.0 1.0 1.0 1.0 1.0 1.0
  1.0 1.0 1.0 1.0 1.0 1.0 1.0 1.0
  1.0 1.0 1.0 1.0 1.0 1.0 1.0 1.0
  1.0 1.0 1.0 1.0 1.0 1.0 1.0 1.0
  1.0 1.0 1.0 1.0 1.0 1.0 1.0 1.0
  1.0 1.0 1.0 1.0 1.0 1.0 1.0 1.0
  1.0 1.0 1.0 1.0 1.0 1.0 1.0 1.0
  1.0 1.0 1.0 1.0 1.0 1.0 1.0 1.0
  1.0 1.0 1.0 1.0 1.0 1.0 1.0 1.0
  1.0 1.0 1.0 1.0 1.0 1.0 1.0 1.0
  1.0 1.0 1.0 1.0 1.0 1.0 1.0 1.0
  1.0 1.0 1.0 1.0 1.0 1.0 1.0 1.0
  1.0 1.0 1.0 1.0 1.0 1.0 1.0 1.0
  1.0 1.0 1.0 1.0 1.0 1.0 1.0 1.0
  1.0 1.0 1.0 1.0 1.0 1.0 1.0 1.0
  1.0 1.0 1.0 1.0 1.0 1.0 1.0 1.0
  1.0 1.0 1.0 1.0 1.0 1.0 1.0 1.0
  1.0 1.0 1.0 1.0 1.0 1.0 1.0 1.0
  1.0 1.0 1.0 1.0 1.0 1.0 1.0 1.0
  1.0 1.0 1.0 1.0 1.0 1.0 1.0 1.0
  1.0 1.0 1.0 1.0 1.0 1.0 1.0 1.0
  1.0 1.0 1.0 1.0 1.0 1.0 1.0 1.0
  1.0 1.0 1.0 1.0 1.0 1.0 1.0 1.0
  1.0 1.0 1.0 0.0 0.0 0.0 0.0 0.0
  0.0 0.0 0.0 0.0 0.0 0.0 0.0 0.0
  0.0 0.0 0.0 0.0 0.0 0.0 0.0 0.0
  0.0 0.0 0.0 0.0 0.0 0.0 0.0 0.0
  0.0 0.0 0.0 0.0 0.0 0.0 0.0 0.0
  0.0 0.0 0.0 0.0 0.0 0.0 0.0 0.0
  0.0 0.0 0.0 0.0 0.0
  
