&CONTROL
	calculation = 'vc-relax'
	restart_mode = 'from_scratch'
	prefix = 'C2Cn'
	pseudo_dir ='./pseudo/'
	outdir='./TMP_DIR/'
	etot_conv_thr = 1.0E-4		
	forc_conv_thr = 1.94E-3
	tstress = .true.		
/
&SYSTEM
	ibrav = 0,
	celldm(1) = 33.23461096
	nat= 98,
	ntyp= 5,
	ecutwfc = 40.0
	nbnd = 245
	occupations = 'from_input' 
	nspin = 2,			! required for spin polarized calc
	starting_magnetization(3) = 1
	vdw_corr = 'Grimme-D3'
/
&ELECTRONS
	diagonalization = 'cg'
	conv_thr = 1.0E-6		! get to -12
/
&IONS
	ion_dynamics="bfgs"
/
&CELL
	cell_dofree = "2Dxy"
	cell_dynamics = 'bfgs'
	press = 0.0
	press_conv_thr = 0.1
	cell_factor = 4.0
/

ATOMIC_SPECIES
  B  10 B.pbe-n-kjpaw_psl.1.0.0.UPF
  N  14 N.pbe-n-kjpaw_psl.1.0.0.UPF
  C1 12 C.pbe-n-kjpaw_psl.1.0.0.UPF
  C2 12 C.pbe-n-kjpaw_psl.1.0.0.UPF
  C3 12 C.pbe-n-kjpaw_psl.1.0.0.UPF

ATOMIC_POSITIONS {crystal}
B        0.047623223   0.095246446   0.500000000
B        0.047618875   0.238098544   0.500000000
B        0.047620975   0.380945622   0.500000000
B        0.047624246   0.523812624   0.500000000
B        0.047620975   0.666675354   0.500000000
B        0.047618875   0.809520331   0.500000000
B        0.047623223   0.952376777   0.500000000
B        0.190486774   0.095243388   0.500000000
B        0.190479669   0.238098544   0.500000000
B        0.190475807   0.380951614   0.500000000
B        0.190484508   0.523813001   0.500000000
B        0.190484508   0.666672508   0.500000000
B        0.190475807   0.809524193   0.500000000
B        0.190479669   0.952381125   0.500000000
B        0.333331486   0.095241693   0.500000000
B        0.333331486   0.238089792   0.500000000
B        0.333324646   0.380945622   0.500000000
B        0.333327492   0.523813001   0.500000000
B        0.333333000   0.666667000   0.500000000
B        0.333327492   0.809515492   0.500000000
B        0.333324646   0.952379025   0.500000000
B        0.476187531   0.095245274   0.500000000
B        0.476187194   0.238093597   0.500000000
B        0.476187531   0.380942257   0.500000000
C2       0.476187376   0.523812624   0.500000000
B        0.476186999   0.666672508   0.500000000
B        0.476186999   0.809515492   0.500000000
B        0.476187376   0.952375754   0.500000000
B        0.619057743   0.095245274   0.500000000
B        0.619050610   0.238100220   0.500000000
B        0.619050610   0.380949390   0.500000000
B        0.619057743   0.523812469   0.500000000
B        0.619054378   0.666675354   0.500000000
B        0.619048386   0.809524193   0.500000000
B        0.619054378   0.952379025   0.500000000
B        0.761910208   0.095241693   0.500000000
B        0.761906403   0.238093597   0.500000000
B        0.761899780   0.380949390   0.500000000
B        0.761906403   0.523812806   0.500000000
B        0.761910208   0.666668514   0.500000000
B        0.761901456   0.809520331   0.500000000
B        0.761901456   0.952381125   0.500000000
B        0.904756612   0.095243388   0.500000000
B        0.904758307   0.238089792   0.500000000
B        0.904754726   0.380942257   0.500000000
B        0.904754726   0.523812469   0.500000000
B        0.904758307   0.666668514   0.500000000
B        0.904756612   0.809513226   0.500000000
B        0.904753554   0.952376777   0.500000000
N        0.095243849   0.047621924   0.500000000
N        0.095241692   0.190483384   0.500000000
N        0.095240348   0.333331987   0.500000000
N        0.095242911   0.476188486   0.500000000
N        0.095242911   0.619054426   0.500000000
N        0.095240348   0.761908361   0.500000000
N        0.095241692   0.904758308   0.500000000
N        0.238097771   0.047619281   0.500000000
N        0.238097771   0.190478490   0.500000000
N        0.238091639   0.333331987   0.500000000
N        0.238094232   0.476188463   0.500000000
N        0.238098681   0.619049840   0.500000000
N        0.238094232   0.761905768   0.500000000
N        0.238091639   0.904759652   0.500000000
N        0.380947819   0.047620592   0.500000000
N        0.380951755   0.190475877   0.500000000
N        0.380947819   0.333327227   0.500000000
C1       0.380945574   0.476188486   0.500000000
N        0.380950160   0.619049840   0.500000000
N        0.380950160   0.761901319   0.500000000
N        0.380945574   0.904757089   0.500000000
N        0.523811774   0.047622549   0.500000000
N        0.523811803   0.190481734   0.500000000
N        0.523811803   0.333329069   0.500000000
N        0.523811774   0.476188226   0.500000000
C3       0.523811514   0.619054426   0.500000000
N        0.523811537   0.761905768   0.500000000
N        0.523811514   0.904757089   0.500000000
N        0.666672773   0.047620592   0.500000000
N        0.666670931   0.190481734   0.500000000
N        0.666667000   0.333333000   0.500000000
N        0.666670931   0.476188197   0.500000000
N        0.666672773   0.619052181   0.500000000
N        0.666668013   0.761908361   0.500000000
N        0.666668013   0.904759652   0.500000000
N        0.809521510   0.047619281   0.500000000
N        0.809524123   0.190475877   0.500000000
N        0.809518266   0.333329069   0.500000000
N        0.809518266   0.476188197   0.500000000
N        0.809524123   0.619048245   0.500000000
N        0.809521510   0.761902229   0.500000000
N        0.809516616   0.904758308   0.500000000
N        0.952378076   0.047621924   0.500000000
N        0.952380719   0.190478490   0.500000000
N        0.952379408   0.333327227   0.500000000
N        0.952377451   0.476188226   0.500000000
N        0.952379408   0.619052181   0.500000000
N        0.952380719   0.761902229   0.500000000
N        0.952378076   0.904756151   0.500000000


K_POINTS gamma

CELL_PARAMETERS alat
   0.999334482   0.000000000   0.000000000
  -0.499667241   0.865449048   0.000000000
   0.000000000   0.000000000   1.137203616
 

OCCUPATIONS
  1.0 1.0 1.0 1.0 1.0 1.0 1.0 1.0
  1.0 1.0 1.0 1.0 1.0 1.0 1.0 1.0
  1.0 1.0 1.0 1.0 1.0 1.0 1.0 1.0
  1.0 1.0 1.0 1.0 1.0 1.0 1.0 1.0
  1.0 1.0 1.0 1.0 1.0 1.0 1.0 1.0
  1.0 1.0 1.0 1.0 1.0 1.0 1.0 1.0
  1.0 1.0 1.0 1.0 1.0 1.0 1.0 1.0
  1.0 1.0 1.0 1.0 1.0 1.0 1.0 1.0
  1.0 1.0 1.0 1.0 1.0 1.0 1.0 1.0
  1.0 1.0 1.0 1.0 1.0 1.0 1.0 1.0
  1.0 1.0 1.0 1.0 1.0 1.0 1.0 1.0
  1.0 1.0 1.0 1.0 1.0 1.0 1.0 1.0
  1.0 1.0 1.0 1.0 1.0 1.0 1.0 1.0
  1.0 1.0 1.0 1.0 1.0 1.0 1.0 1.0
  1.0 1.0 1.0 1.0 1.0 1.0 1.0 1.0
  1.0 1.0 1.0 1.0 1.0 1.0 1.0 1.0
  1.0 1.0 1.0 1.0 1.0 1.0 1.0 1.0
  1.0 1.0 1.0 1.0 1.0 1.0 1.0 1.0
  1.0 1.0 1.0 1.0 1.0 1.0 1.0 1.0
  1.0 1.0 1.0 1.0 1.0 1.0 1.0 1.0
  1.0 1.0 1.0 1.0 1.0 1.0 1.0 1.0
  1.0 1.0 1.0 1.0 1.0 1.0 1.0 1.0
  1.0 1.0 1.0 1.0 1.0 1.0 1.0 1.0
  1.0 1.0 1.0 1.0 1.0 1.0 1.0 1.0
  1.0 1.0 1.0 1.0 0.0 0.0 0.0 0.0
  0.0 0.0 0.0 0.0 0.0 0.0 0.0 0.0
  0.0 0.0 0.0 0.0 0.0 0.0 0.0 0.0
  0.0 0.0 0.0 0.0 0.0 0.0 0.0 0.0
  0.0 0.0 0.0 0.0 0.0 0.0 0.0 0.0
  0.0 0.0 0.0 0.0 0.0 0.0 0.0 0.0
  0.0 0.0 0.0 0.0 0.0
  1.0 1.0 1.0 1.0 1.0 1.0 1.0 1.0
  1.0 1.0 1.0 1.0 1.0 1.0 1.0 1.0
  1.0 1.0 1.0 1.0 1.0 1.0 1.0 1.0
  1.0 1.0 1.0 1.0 1.0 1.0 1.0 1.0
  1.0 1.0 1.0 1.0 1.0 1.0 1.0 1.0
  1.0 1.0 1.0 1.0 1.0 1.0 1.0 1.0
  1.0 1.0 1.0 1.0 1.0 1.0 1.0 1.0
  1.0 1.0 1.0 1.0 1.0 1.0 1.0 1.0
  1.0 1.0 1.0 1.0 1.0 1.0 1.0 1.0
  1.0 1.0 1.0 1.0 1.0 1.0 1.0 1.0
  1.0 1.0 1.0 1.0 1.0 1.0 1.0 1.0
  1.0 1.0 1.0 1.0 1.0 1.0 1.0 1.0
  1.0 1.0 1.0 1.0 1.0 1.0 1.0 1.0
  1.0 1.0 1.0 1.0 1.0 1.0 1.0 1.0
  1.0 1.0 1.0 1.0 1.0 1.0 1.0 1.0
  1.0 1.0 1.0 1.0 1.0 1.0 1.0 1.0
  1.0 1.0 1.0 1.0 1.0 1.0 1.0 1.0
  1.0 1.0 1.0 1.0 1.0 1.0 1.0 1.0
  1.0 1.0 1.0 1.0 1.0 1.0 1.0 1.0
  1.0 1.0 1.0 1.0 1.0 1.0 1.0 1.0
  1.0 1.0 1.0 1.0 1.0 1.0 1.0 1.0
  1.0 1.0 1.0 1.0 1.0 1.0 1.0 1.0
  1.0 1.0 1.0 1.0 1.0 1.0 1.0 1.0
  1.0 1.0 1.0 1.0 1.0 1.0 1.0 1.0
  1.0 1.0 1.0 0.0 0.0 0.0 0.0 0.0
  0.0 0.0 0.0 0.0 0.0 0.0 0.0 0.0
  0.0 0.0 0.0 0.0 0.0 0.0 0.0 0.0
  0.0 0.0 0.0 0.0 0.0 0.0 0.0 0.0
  0.0 0.0 0.0 0.0 0.0 0.0 0.0 0.0
  0.0 0.0 0.0 0.0 0.0 0.0 0.0 0.0
  0.0 0.0 0.0 0.0 0.0
  
