&CONTROL
	calculation = 'vc-relax'
	prefix = 'hBN'
	pseudo_dir ='./pseudo/'
	outdir='./TMP_DIR/'
	forc_conv_thr = 1.94E-10
	tstress = .true.
	tprnfor = .true.
	nstep = 2000
/
&SYSTEM
	ibrav = 4,
	celldm(1) = 4.724314971
	celldm(3) = 6 
	nat= 2,
	ntyp= 2,
	ecutwfc = 60,
	!occupations = 'smearing'
	!smearing = 'm-p'
	!degauss = 0.01
	occupations = 'fixed'
	assume_isolated	= '2D'
	nbnd = 8
/
&ELECTRONS
	diagonalization = 'cg'
	conv_thr = 1.0E-12	
/
&IONS
	ion_dynamics="bfgs"
/
&CELL
	cell_dofree = '2Dxy'
	cell_dynamics = 'bfgs'
/

ATOMIC_SPECIES
  B 10.811  B.pbe-n-kjpaw_psl.1.0.0.UPF 
  N 14.0067 N.pbe-n-kjpaw_psl.1.0.0.UPF

ATOMIC_POSITIONS (crystal)
   B               0.333333     0.666667     0.500000     
   N               0.666667     0.333333     0.500000     
 
K_POINTS automatic 
 16 16 1 0 0 0 


