&CONTROL
	calculation = 'vc-relax'
	prefix = 'hBN'
	pseudo_dir ='./pseudo/'
	outdir='./TMP_DIR/'
	forc_conv_thr = 1.94E-10
	tstress = .true.
	tprnfor = .true.
	nstep = 2000
/
&SYSTEM
	ibrav = 0,
	celldm(1) = 23.764638453
	nat= 50,
	ntyp= 3,
	ecutwfc = 60,
	ecutrho = 500,
	occupations = 'smearing'
	smearing = 'm-p'
	degauss = 0.01
	assume_isolated	= '2D'
	!nosym = .true.
/
&ELECTRONS
	diagonalization = 'cg'
	conv_thr = 1.0E-12	
/
&IONS
	ion_dynamics="bfgs"
/
&CELL
	cell_dofree = '2Dxy'
	cell_dynamics = 'damp-pr'
	press = 0.0
	press_conv_thr = 0.005
/

ATOMIC_SPECIES
  B 10.811  B.pbe-n-kjpaw_psl.1.0.0.UPF 
  N 14.0067 N.pbe-n-kjpaw_psl.1.0.0.UPF
  C 12.0107 C.pbe-n-kjpaw_psl.1.0.0.UPF

ATOMIC_POSITIONS (crystal)
B             0.0663043126        0.1328107099        0.5000000000
B             0.0673410905        0.3336098910        0.5000000000
B             0.0660496967        0.5336058066        0.5000000000
B             0.0663795541        0.7335440504        0.5000000000
B             0.0667306864        0.9332693130        0.5000000000
B             0.2663269558        0.1316068238        0.5000000000
B             0.2660626190        0.3295065956        0.5000000000
B             0.2667113950        0.5370216183        0.5000000000
B             0.2649937147        0.7350062848        0.5000000000
B             0.2664559494        0.9336204456        0.5000000000
B             0.4667826923        0.1336869062        0.5000000000
B             0.4660104329        0.3329750793        0.5000000000
C             0.4677440097        0.5322559902        0.5000000000
B             0.4629783814        0.7332886043        0.5000000000
B             0.4663941932        0.9339503031        0.5000000000
B             0.6666935876        0.1332641894        0.5000000000
B             0.6667114171        0.3332885837        0.5000000000
B             0.6670249208        0.5339895668        0.5000000000
B             0.6704934036        0.7339373801        0.5000000000
B             0.6663901091        0.9326589096        0.5000000000
B             0.8667817859        0.1332182138        0.5000000000
B             0.8667358106        0.3333064126        0.5000000000
B             0.8663130933        0.5332173074        0.5000000000
B             0.8683931758        0.7336730442        0.5000000000
B             0.8671892896        0.9336956871        0.5000000000
N             0.1332169994        0.0662699376        0.5000000000
N             0.1328477975        0.2654389035        0.5000000000
N             0.1331558676        0.4675276624        0.5000000000
N             0.1321126130        0.6669657647        0.5000000000
N             0.1331758386        0.8668241609        0.5000000000
N             0.3334872369        0.0663776448        0.5000000000
N             0.3330504346        0.2641402791        0.5000000000
C             0.3386637998        0.4683445458        0.5000000000
N             0.3306078748        0.6693921245        0.5000000000
N             0.3330342350        0.8678873865        0.5000000001
N             0.5334466872        0.0672942084        0.5000000000
N             0.5334883966        0.2672767413        0.4999999999
N             0.5327291112        0.4672708886        0.5000000000
C             0.5316554535        0.6613361996        0.5000000000
N             0.5324723370        0.8668441318        0.5000000000
N             0.7331878388        0.0662669077        0.5000000000
N             0.7333755463        0.2666244540        0.4999999999
N             0.7327232590        0.4665116034        0.5000000000
N             0.7358597203        0.6669495650        0.5000000000
N             0.7345610961        0.8671522022        0.5000000000
N             0.9333629477        0.0666370518        0.5000000000
N             0.9337330922        0.2668121610        0.5000000000
N             0.9327057912        0.4665533126        0.5000000000
N             0.9336223546        0.6665127627        0.5000000000
N             0.9337300620        0.8667830004        0.5000000000
    
 
K_POINTS automatic 
 2 2 1 0 0 0 

CELL_PARAMETERS alat
   1.002846337  -0.000647873   0.000000000
  -0.501981446   0.868168086   0.000000000
   0.000000000   0.000000000   1.192775420
