&CONTROL
	calculation = 'vc-relax'
	prefix = 'hBN'
	pseudo_dir ='./pseudo/'
	outdir='./TMP_DIR/'
	forc_conv_thr = 1.94E-10
	tstress = .true.
	tprnfor = .true.
	nstep = 2000
/
&SYSTEM
	ibrav = 0,
	celldm(1) = 23.764638453
	nat= 50,
	ntyp= 3,
	ecutwfc = 60,
	ecutrho = 500,
	occupations = 'smearing'
	smearing = 'm-p'
	degauss = 0.01
	assume_isolated	= '2D'
	!nosym = .true.
/
&ELECTRONS
	diagonalization = 'cg'
	conv_thr = 1.0E-12	
/
&IONS
	ion_dynamics="bfgs"
/
&CELL
	cell_dofree = '2Dxy'
	cell_dynamics = 'bfgs'
	press = 0.0
	press_conv_thr = 0.005
/

ATOMIC_SPECIES
  B 10.811  B.pbe-n-kjpaw_psl.1.0.0.UPF 
  N 14.0067 N.pbe-n-kjpaw_psl.1.0.0.UPF
  C 12.0107 C.pbe-n-kjpaw_psl.1.0.0.UPF

ATOMIC_POSITIONS (crystal)
B             0.0663069107        0.1328280922        0.5000000000
B             0.0673458225        0.3336184492        0.5000000000
B             0.0660599713        0.5336052056        0.5000000000
B             0.0663830299        0.7335448113        0.5000000000
B             0.0667241566        0.9332758434        0.5000000000
B             0.2663364710        0.1316290508        0.5000000000
B             0.2661011943        0.3295339093        0.5000000000
B             0.2667495102        0.5370329898        0.5000000000
B             0.2650114622        0.7349885370        0.5000000000
B             0.2664551892        0.9336169713        0.5000000000
B             0.4667778427        0.1336852119        0.5000000000
B             0.4660202695        0.3329830003        0.5000000000
C             0.4677378027        0.5322621961        0.5000000000
B             0.4629670098        0.7332504898        0.5000000000
B             0.4663947941        0.9339400290        0.5000000000
B             0.6666867461        0.1332661329        0.5000000000
B             0.6667095425        0.3332904567        0.5000000000
B             0.6670169992        0.5339797301        0.5000000000
B             0.6704660908        0.7338988051        0.5000000000
B             0.6663815508        0.9326541782        0.5000000000
B             0.8667758175        0.1332241825        0.5000000000
B             0.8667338673        0.3333132540        0.5000000000
B             0.8663147877        0.5332221565        0.5000000000
B             0.8683709489        0.7336635296        0.5000000000
B             0.8671719090        0.9336930900        0.5000000000
N             0.1332180851        0.0662827381        0.5000000000
N             0.1328654485        0.2654573679        0.5000000000
N             0.1331753803        0.4675375476        0.5000000000
N             0.1321207593        0.6669660392        0.5000000000
N             0.1331723252        0.8668276755        0.5000000000
N             0.3334833399        0.0663801778        0.5000000000
N             0.3330676149        0.2641537989        0.5000000000
C             0.3386815142        0.4683513430        0.5000000000
N             0.3306168925        0.6693831064        0.5000000000
N             0.3330339606        0.8678792411        0.5000000001
N             0.5334405051        0.0672903171        0.5000000000
N             0.5334884187        0.2672785731        0.4999999999
N             0.5327253629        0.4672746362        0.5000000000
C             0.5316486564        0.6613184849        0.5000000000
N             0.5324624520        0.8668246202        0.5000000000
N             0.7331795043        0.0662666824        0.5000000000
N             0.7333723073        0.2666276925        0.4999999999
N             0.7327214261        0.4665115805        0.5000000000
N             0.7358462011        0.6669323851        0.5000000000
N             0.7345426332        0.8671345523        0.5000000000
N             0.9333570711        0.0666429299        0.5000000000
N             0.9337333182        0.2668204958        0.5000000000
N             0.9327096832        0.4665594946        0.5000000000
N             0.9336198224        0.6665166604        0.5000000000
N             0.9337172622        0.8667819152        0.5000000000
    
 
K_POINTS automatic 
 2 2 1 0 0 0 

CELL_PARAMETERS alat
   1.002932359  -0.000644160   0.000000000
  -0.502020645   0.868244783   0.000000000
   0.000000000   0.000000000   1.192775420
