&CONTROL
	calculation = 'scf'
	restart_mode = 'from_scratch'
	prefix = 'hBN'
	pseudo_dir ='./pseudo/'
	outdir='./TMP_DIR/'
	tstress = .true.
	tprnfor = .true.
/
&SYSTEM
	ibrav = 0,
	celldm(1) = 23.764638453
	nat= 50,
	ntyp= 3,
	ecutwfc = 60,
    	ecutrho = 500
	occupations = 'smearing'
	smearing = 'm-p'
	degauss = 0.01
	assume_isolated	= '2D'
	!nosym = .true.
/
&ELECTRONS
	diagonalization = 'cg'
	conv_thr = 1.0E-12	
/
&IONS
	ion_dynamics="bfgs"
/

ATOMIC_SPECIES
  B 10.811  B.pbe-n-kjpaw_psl.1.0.0.UPF
  N 14.0067 N.pbe-n-kjpaw_psl.1.0.0.UPF
  C 12.0107 C.pbe-n-kjpaw_psl.1.0.0.UPF

ATOMIC_POSITIONS (crystal)
B             0.0663052479        0.1328097245        0.5000000000
B             0.0673406706        0.3336088920        0.5000000000
B             0.0660484754        0.5336048332        0.5000000000
B             0.0663791995        0.7335431099        0.5000000000
B             0.0667316399        0.9332683600        0.5000000000
B             0.2663278711        0.1316071296        0.5000000000
B             0.2660622276        0.3295068991        0.5000000000
B             0.2667101807        0.5370219520        0.5000000000
B             0.2649933440        0.7350066552        0.5000000000
B             0.2664568893        0.9336207995        0.5000000000
B             0.4667836117        0.1336880724        0.5000000000
B             0.4660100222        0.3329762312        0.5000000000
C             0.4677428296        0.5322571707        0.5000000000
B             0.4629780483        0.7332898192        0.5000000000
B             0.4663951668        0.9339515242        0.5000000000
B             0.6666945422        0.1332645956        0.5000000000
B             0.6667110213        0.3332889788        0.5000000000
B             0.6670237683        0.5339899772        0.5000000000
B             0.6704930999        0.7339377714        0.5000000000
B             0.6663911075        0.9326593296        0.5000000000
B             0.8667827422        0.1332172565        0.5000000000
B             0.8667354038        0.3333054581        0.5000000000
B             0.8663119276        0.5332163883        0.5000000000
B             0.8683928703        0.7336721281        0.5000000000
B             0.8671902752        0.9336947521        0.5000000000
N             0.1332180161        0.0662691092        0.5000000000
N             0.1328475945        0.2654380523        0.5000000000
N             0.1331546902        0.4675268406        0.5000000000
N             0.1321120436        0.6669649540        0.5000000000
N             0.1331766312        0.8668233679        0.5000000000
N             0.3334882615        0.0663781704        0.5000000000
N             0.3330502353        0.2641407637        0.5000000000
C             0.3386626230        0.4683451206        0.5000000000
N             0.3306073345        0.6693926653        0.5000000000
N             0.3330350457        0.8678879554        0.5000000001
N             0.5334477469        0.0672953800        0.5000000000
N             0.5334882134        0.2672778601        0.4999999999
N             0.5327279849        0.4672720152        0.5000000000
C             0.5316548792        0.6613373767        0.5000000000
N             0.5324731597        0.8668453099        0.5000000000
N             0.7331889096        0.0662670936        0.5000000000
N             0.7333753761        0.2666246236        0.4999999999
N             0.7327221402        0.4665117869        0.5000000000
N             0.7358592359        0.6669497638        0.5000000000
N             0.7345619468        0.8671524055        0.5000000000
N             0.9333640012        0.0666359985        0.5000000000
N             0.9337329057        0.2668110898        0.5000000000
N             0.9327046196        0.4665522538        0.5000000000
N             0.9336218292        0.6665117376        0.5000000000
N             0.9337308907        0.8667819833        0.5000000000

 
K_POINTS automatic 
 2 2 1 0 0 0 

CELL_PARAMETERS alat
   1.002846349  -0.000647878   0.000000000
  -0.501981465   0.868168087   0.000000000
   0.000000000   0.000000000   1.192775420

