Phonon dispersions for hBN
&inputph
  prefix   = 'hBN'
  outdir   = './TMP_DIR/3',
  fildvscf = 'dvscf'
  fildyn   = 'hBN.dyn'
  tr2_ph   = 1.0d-16
  recover=.true.,
  alpha_mix(1) = 0.1
  search_sym = .true.
  ldisp=.true.,
  nq1=2, nq2=2, nq3=1,
  start_q=3, last_q=3
/
