&CONTROL
	calculation = 'vc-relax'
	prefix = 'hBN'
	pseudo_dir ='./pseudo/'
	outdir='./TMP_DIR/'
	forc_conv_thr = 1.94E-10
	tstress = .true.
	tprnfor = .true.
	nstep = 2000
/
&SYSTEM
	ibrav = 0,
	celldm(1) = 23.764638453
	nat= 50,
	ntyp= 3,
	ecutwfc = 60,
	ecutrho = 500,
	occupations = 'smearing'
	smearing = 'm-p'
	degauss = 0.01
	assume_isolated	= '2D'
	!nosym = .true.
/
&ELECTRONS
	diagonalization = 'cg'
	conv_thr = 1.0E-12	
/
&IONS
	ion_dynamics="bfgs"
/
&CELL
	cell_dofree = '2Dxy'
	cell_dynamics = 'damp-pr'
	press = 0.0
	press_conv_thr = 0.005
/

ATOMIC_SPECIES
  B 10.811  B.pbe-n-kjpaw_psl.1.0.0.UPF 
  N 14.0067 N.pbe-n-kjpaw_psl.1.0.0.UPF
  C 12.0107 C.pbe-n-kjpaw_psl.1.0.0.UPF

ATOMIC_POSITIONS (crystal)
B             0.0663049496        0.1328100325        0.5000000000
B             0.0673407921        0.3336092031        0.5000000000
B             0.0660488527        0.5336051402        0.5000000000
B             0.0663793170        0.7335434132        0.5000000000
B             0.0667313380        0.9332686617        0.5000000000
B             0.2663275729        0.1316070178        0.5000000000
B             0.2660623426        0.3295067908        0.5000000000
B             0.2667105544        0.5370218421        0.5000000000
B             0.2649934588        0.7350065399        0.5000000000
B             0.2664565862        0.9336206828        0.5000000000
B             0.4667833173        0.1336876980        0.5000000000
B             0.4660101439        0.3329758543        0.5000000000
C             0.4677432028        0.5322567967        0.5000000000
B             0.4629781577        0.7332894450        0.5000000000
B             0.4663948603        0.9339511477        0.5000000000
B             0.6666942468        0.1332644728        0.5000000000
B             0.6667111464        0.3332888525        0.5000000000
B             0.6670241440        0.5339898544        0.5000000000
B             0.6704932079        0.7339376572        0.5000000000
B             0.6663907966        0.9326592077        0.5000000000
B             0.8667824441        0.1332175561        0.5000000000
B             0.8667355271        0.3333057528        0.5000000000
B             0.8663123024        0.5332166831        0.5000000000
B             0.8683929835        0.7336724278        0.5000000000
B             0.8671899676        0.9336950504        0.5000000000
N             0.1332176894        0.0662693658        0.5000000000
N             0.1328476486        0.2654383161        0.5000000000
N             0.1331550489        0.4675270961        0.5000000000
N             0.1321122210        0.6669652113        0.5000000000
N             0.1331763786        0.8668236207        0.5000000000
N             0.3334879323        0.0663779949        0.5000000000
N             0.3330502867        0.2641405926        0.5000000000
C             0.3386629900        0.4683449325        0.5000000000
N             0.3306075033        0.6693924957        0.5000000000
N             0.3330347879        0.8678877782        0.5000000001
N             0.5334474179        0.0672950166        0.5000000000
N             0.5334882679        0.2672774978        0.4999999999
N             0.5327283437        0.4672716544        0.5000000000
C             0.5316550666        0.6613370096        0.5000000000
N             0.5324729039        0.8668449507        0.5000000000
N             0.7331885790        0.0662670428        0.5000000000
N             0.7333754296        0.2666245699        0.4999999999
N             0.7327225015        0.4665117309        0.5000000000
N             0.7358594066        0.6669497131        0.5000000000
N             0.7345616834        0.8671523515        0.5000000000
N             0.9333636706        0.0666363294        0.5000000000
N             0.9337329572        0.2668114209        0.5000000000
N             0.9327049840        0.4665525825        0.5000000000
N             0.9336220059        0.6665120678        0.5000000000
N             0.9337306345        0.8667823108        0.5000000000
    
 
K_POINTS automatic 
 2 2 1 0 0 0 

CELL_PARAMETERS alat
   1.002846346  -0.000647877   0.000000000
  -0.501981461   0.868168087   0.000000000
   0.000000000   0.000000000   1.192775420
