&CONTROL
	calculation = 'vc-relax'
	prefix = 'hBN'
	pseudo_dir ='./pseudo/'
	outdir='./TMP_DIR/'
	forc_conv_thr = 1.94E-10
	tstress = .true.
	tprnfor = .true.
	nstep = 2000
/
&SYSTEM
	ibrav = 4,
	celldm(1) = 23.764638453
	celldm(3) = 1.19277541953
	nat= 50,
	ntyp= 3,
	ecutwfc = 60,
	occupations = 'smearing'
	smearing = 'm-p'
	degauss = 0.01
	assume_isolated	= '2D'
/
&ELECTRONS
	diagonalization = 'cg'
	conv_thr = 1.0E-12	
/
&IONS
	ion_dynamics="bfgs"
/
&CELL
	cell_dofree = '2Dxy'
	cell_dynamics = 'bfgs'
/

ATOMIC_SPECIES
  B 10.811  B.pbe-n-kjpaw_psl.1.0.0.UPF 
  N 14.0067 N.pbe-n-kjpaw_psl.1.0.0.UPF
  C 12.0107 C.pbe-n-kjpaw_psl.1.0.0.UPF

ATOMIC_POSITIONS (crystal)
   B              0.066667     0.133333     0.500000     
   B              0.066667     0.333333     0.500000     
   B              0.066667     0.533333     0.500000     
   B              0.066667     0.733333     0.500000     
   B              0.066667     0.933333     0.500000     
   B              0.266667     0.133333     0.500000     
   B              0.266667     0.333333     0.500000     
   B              0.266667     0.533333     0.500000     
   B              0.266667     0.733333     0.500000     
   B              0.266667     0.933333     0.500000     
   B              0.466667     0.133333     0.500000     
   B              0.466667     0.333333     0.500000     
   C              0.466667     0.533333     0.500000    
   B              0.466667     0.733333     0.500000     
   B              0.466667     0.933333     0.500000     
   B              0.666667     0.133333     0.500000     
   B              0.666667     0.333333     0.500000     
   B              0.666667     0.533333     0.500000     
   B              0.666667     0.733333     0.500000     
   B              0.666667     0.933333     0.500000     
   B              0.866667     0.133333     0.500000     
   B              0.866667     0.333333     0.500000     
   B              0.866667     0.533333     0.500000     
   B              0.866667     0.733333     0.500000     
   B              0.866667     0.933333     0.500000     
   N              0.133333     0.066667     0.500000     
   N              0.133333     0.266667     0.500000     
   N              0.133333     0.466667     0.500000     
   N              0.133333     0.666667     0.500000     
   N              0.133333     0.866667     0.500000     
   N              0.333333     0.066667     0.500000     
   N              0.333333     0.266667     0.500000     
   C              0.333333     0.466667     0.500000    
   N              0.333333     0.666667     0.500000     
   N              0.333333     0.866667     0.500000     
   N              0.533333     0.066667     0.500000     
   N              0.533333     0.266667     0.500000     
   N              0.533333     0.466667     0.500000     
   C              0.533333     0.666667     0.500000    
   N              0.533333     0.866667     0.500000     
   N              0.733333     0.066667     0.500000     
   N              0.733333     0.266667     0.500000     
   N              0.733333     0.466667     0.500000     
   N              0.733333     0.666667     0.500000     
   N              0.733333     0.866667     0.500000     
   N              0.933333     0.066667     0.500000     
   N              0.933333     0.266667     0.500000     
   N              0.933333     0.466667     0.500000     
   N              0.933333     0.666667     0.500000     
   N              0.933333     0.866667     0.500000     
     
 
K_POINTS automatic 
 2 2 1 0 0 0 


