&CONTROL
	calculation = 'scf'
	restart_mode = 'from_scratch'
	prefix = 'C2Cn'
	pseudo_dir ='./pseudo/'
	outdir='./TMP_DIR/'
/
&SYSTEM
	ibrav = 0,
	celldm(1) = 33.23461096
	nat= 98,
	ntyp= 5,
	ecutwfc = 40.0
	nbnd = 245,
	occupations = 'from_input' 
	nspin = 2
	starting_magnetization(3) = 1
	input_dft='hse', nqx1 = 1, nqx2 = 1, nqx3 = 1, 	! HSE06
    	x_gamma_extrapolation = .true.,
    	exxdiv_treatment = 'gygi-baldereschi',
    	nosym = .true., noinv = .true
	vdw_corr = 'Grimme-D3'
	exx_fraction = 0.32
	screening_parameter = 0.0455 
/
&ELECTRONS
	diagonalization = 'cg'
	conv_thr = 1.0E-6	
/
ATOMIC_SPECIES
  B  10 B.pbe-n-kjpaw_psl.1.0.0.UPF
  N  14 N.pbe-n-kjpaw_psl.1.0.0.UPF
  C1 12 C.pbe-n-kjpaw_psl.1.0.0.UPF
  C2 12 C.pbe-n-kjpaw_psl.1.0.0.UPF
  C3 12 C.pbe-n-kjpaw_psl.1.0.0.UPF

ATOMIC_POSITIONS (crystal)
B        0.047430180   0.094849682   0.500000000
B        0.047738430   0.238015168   0.500000000
B        0.047639328   0.381022336   0.500000000
B        0.047232996   0.523749954   0.500000000
B        0.047516862   0.666616478   0.500000000
B        0.047792725   0.809614132   0.500000000
B        0.047660393   0.952339558   0.500000000
B        0.190093365   0.094556544   0.500000000
B        0.189804453   0.237112554   0.500000000
B        0.190906587   0.381118127   0.500000000
B        0.189705074   0.524061937   0.500000000
B        0.189613370   0.666930192   0.500000000
B        0.190308706   0.809691260   0.500000000
B        0.190385836   0.952207251   0.500000000
B        0.333340354   0.094563377   0.500000000
B        0.332902710   0.236246316   0.500000000
B        0.332537703   0.377795815   0.500000000
B        0.333084673   0.526682787   0.500000000
B        0.331740537   0.668259438   0.500000000
B        0.333069772   0.810386587   0.500000000
B        0.333383498   0.952483107   0.500000000
B        0.476362807   0.095248512   0.500000000
B        0.476347347   0.238099295   0.500000000
B        0.475651601   0.380706031   0.500000000
C2       0.476848508   0.523151377   0.500000000
B        0.473317174   0.666915305   0.500000000
B        0.475938038   0.810294933   0.500000000
B        0.476250070   0.952766994   0.500000000
B        0.619026696   0.095175202   0.500000000
B        0.619138341   0.238060736   0.500000000
B        0.619042775   0.380957255   0.500000000
B        0.619293961   0.524348392   0.500000000
B        0.622204168   0.667462263   0.500000000
B        0.618881881   0.809093397   0.500000000
B        0.618977665   0.952360654   0.500000000
B        0.761900790   0.095121974   0.500000000
B        0.761934963   0.238065082   0.500000000
B        0.761939313   0.380861732   0.500000000
B        0.761900739   0.523652713   0.500000000
B        0.763753743   0.667097305   0.500000000
B        0.762887508   0.810195522   0.500000000
B        0.761984855   0.952261524   0.500000000
B        0.904885167   0.095114802   0.500000000
B        0.904878015   0.238099223   0.500000000
B        0.904824821   0.380973361   0.500000000
B        0.904751504   0.523637245   0.500000000
B        0.905436615   0.666659625   0.500000000
B        0.905443437   0.809906594   0.500000000
B        0.905150291   0.952569762   0.500000000
N        0.095067939   0.047332449   0.500000000
N        0.094815938   0.189892327   0.500000000
N        0.095520157   0.333459314   0.500000000
N        0.094684267   0.476165779   0.500000000
N        0.094662762   0.618955535   0.500000000
N        0.095138751   0.761898366   0.500000000
N        0.095244992   0.904755116   0.500000000
N        0.238049736   0.047313259   0.500000000
N        0.237730218   0.189631200   0.500000000
N        0.237445046   0.332048928   0.500000000
N        0.237787266   0.476859657   0.500000000
N        0.236762608   0.619414480   0.500000000
N        0.237755387   0.762244698   0.500000000
N        0.238101737   0.904861358   0.500000000
N        0.381148631   0.047497539   0.500000000
N        0.381055118   0.189611310   0.500000000
N        0.380560519   0.331170127   0.500000000
C1       0.384514627   0.477369574   0.500000000
N        0.378716294   0.621283736   0.500000000
N        0.380585524   0.763237432   0.500000000
N        0.381044472   0.905337316   0.500000000
N        0.523943436   0.047834345   0.500000000
N        0.523953098   0.190556519   0.500000000
N        0.523842943   0.333634874   0.500000000
N        0.523337659   0.476662324   0.500000000
C3       0.522630445   0.615485420   0.500000000
N        0.523140329   0.762212728   0.500000000
N        0.523834188   0.905315754   0.500000000
N        0.666671977   0.047578452   0.500000000
N        0.666706036   0.190442379   0.500000000
N        0.666663505   0.333336431   0.500000000
N        0.666365028   0.476156977   0.500000000
N        0.668829748   0.619439421   0.500000000
N        0.667950976   0.762554920   0.500000000
N        0.666540645   0.904479825   0.500000000
N        0.809564132   0.047529242   0.500000000
N        0.809568612   0.190431365   0.500000000
N        0.809557598   0.333293930   0.500000000
N        0.809443434   0.476046837   0.500000000
N        0.810388647   0.618944850   0.500000000
N        0.810368793   0.762269802   0.500000000
N        0.810107671   0.905184088   0.500000000
N        0.952443733   0.047556341   0.500000000
N        0.952470770   0.190435864   0.500000000
N        0.952421551   0.333327993   0.500000000
N        0.952165674   0.476056517   0.500000000
N        0.952502514   0.618851386   0.500000000
N        0.952686854   0.761950355   0.500000000
N        0.952667666   0.904932159   0.500000000

K_POINTS gamma

CELL_PARAMETERS alat
   1.000639801  -0.000348652   0.000000000
  -0.500621841   0.866405175   0.000000000
   0.000000000   0.000000000   1.137203616

OCCUPATIONS
  1.0 1.0 1.0 1.0 1.0 1.0 1.0 1.0
  1.0 1.0 1.0 1.0 1.0 1.0 1.0 1.0
  1.0 1.0 1.0 1.0 1.0 1.0 1.0 1.0
  1.0 1.0 1.0 1.0 1.0 1.0 1.0 1.0
  1.0 1.0 1.0 1.0 1.0 1.0 1.0 1.0
  1.0 1.0 1.0 1.0 1.0 1.0 1.0 1.0
  1.0 1.0 1.0 1.0 1.0 1.0 1.0 1.0
  1.0 1.0 1.0 1.0 1.0 1.0 1.0 1.0
  1.0 1.0 1.0 1.0 1.0 1.0 1.0 1.0
  1.0 1.0 1.0 1.0 1.0 1.0 1.0 1.0
  1.0 1.0 1.0 1.0 1.0 1.0 1.0 1.0
  1.0 1.0 1.0 1.0 1.0 1.0 1.0 1.0
  1.0 1.0 1.0 1.0 1.0 1.0 1.0 1.0
  1.0 1.0 1.0 1.0 1.0 1.0 1.0 1.0
  1.0 1.0 1.0 1.0 1.0 1.0 1.0 1.0
  1.0 1.0 1.0 1.0 1.0 1.0 1.0 1.0
  1.0 1.0 1.0 1.0 1.0 1.0 1.0 1.0
  1.0 1.0 1.0 1.0 1.0 1.0 1.0 1.0
  1.0 1.0 1.0 1.0 1.0 1.0 1.0 1.0
  1.0 1.0 1.0 1.0 1.0 1.0 1.0 1.0
  1.0 1.0 1.0 1.0 1.0 1.0 1.0 1.0
  1.0 1.0 1.0 1.0 1.0 1.0 1.0 1.0
  1.0 1.0 1.0 1.0 1.0 1.0 1.0 1.0
  1.0 1.0 1.0 1.0 1.0 1.0 1.0 1.0
  1.0 1.0 1.0 1.0 0.0 0.0 0.0 0.0
  0.0 0.0 0.0 0.0 0.0 0.0 0.0 0.0
  0.0 0.0 0.0 0.0 0.0 0.0 0.0 0.0
  0.0 0.0 0.0 0.0 0.0 0.0 0.0 0.0
  0.0 0.0 0.0 0.0 0.0 0.0 0.0 0.0
  0.0 0.0 0.0 0.0 0.0 0.0 0.0 0.0
  0.0 0.0 0.0 0.0 0.0
  1.0 1.0 1.0 1.0 1.0 1.0 1.0 1.0
  1.0 1.0 1.0 1.0 1.0 1.0 1.0 1.0
  1.0 1.0 1.0 1.0 1.0 1.0 1.0 1.0
  1.0 1.0 1.0 1.0 1.0 1.0 1.0 1.0
  1.0 1.0 1.0 1.0 1.0 1.0 1.0 1.0
  1.0 1.0 1.0 1.0 1.0 1.0 1.0 1.0
  1.0 1.0 1.0 1.0 1.0 1.0 1.0 1.0
  1.0 1.0 1.0 1.0 1.0 1.0 1.0 1.0
  1.0 1.0 1.0 1.0 1.0 1.0 1.0 1.0
  1.0 1.0 1.0 1.0 1.0 1.0 1.0 1.0
  1.0 1.0 1.0 1.0 1.0 1.0 1.0 1.0
  1.0 1.0 1.0 1.0 1.0 1.0 1.0 1.0
  1.0 1.0 1.0 1.0 1.0 1.0 1.0 1.0
  1.0 1.0 1.0 1.0 1.0 1.0 1.0 1.0
  1.0 1.0 1.0 1.0 1.0 1.0 1.0 1.0
  1.0 1.0 1.0 1.0 1.0 1.0 1.0 1.0
  1.0 1.0 1.0 1.0 1.0 1.0 1.0 1.0
  1.0 1.0 1.0 1.0 1.0 1.0 1.0 1.0
  1.0 1.0 1.0 1.0 1.0 1.0 1.0 1.0
  1.0 1.0 1.0 1.0 1.0 1.0 1.0 1.0
  1.0 1.0 1.0 1.0 1.0 1.0 1.0 1.0
  1.0 1.0 1.0 1.0 1.0 1.0 1.0 1.0
  1.0 1.0 1.0 1.0 1.0 1.0 1.0 1.0
  1.0 1.0 1.0 1.0 1.0 1.0 1.0 1.0
  1.0 1.0 1.0 0.0 0.0 0.0 0.0 0.0
  0.0 0.0 0.0 0.0 0.0 0.0 0.0 0.0
  0.0 0.0 0.0 0.0 0.0 0.0 0.0 0.0
  0.0 0.0 0.0 0.0 0.0 0.0 0.0 0.0
  0.0 0.0 0.0 0.0 0.0 0.0 0.0 0.0
  0.0 0.0 0.0 0.0 0.0 0.0 0.0 0.0
  0.0 0.0 0.0 0.0 0.0
 
