&CONTROL
	calculation = 'vc-relax'
	prefix = 'hBN'
	pseudo_dir ='./pseudo/'
	outdir='./TMP_DIR/'
	forc_conv_thr = 1.94E-10
	tstress = .true.
	tprnfor = .true.
	nstep = 2000
/
&SYSTEM
	ibrav = 0,
	celldm(1) = 23.764638453
	nat= 50,
	ntyp= 3,
	ecutwfc = 60,
	ecutrho = 500,
	occupations = 'smearing'
	smearing = 'm-p'
	degauss = 0.01
	assume_isolated	= '2D'
	!nosym = .true.
/
&ELECTRONS
	diagonalization = 'cg'
	conv_thr = 1.0E-12	
/
&IONS
	ion_dynamics="bfgs"
/
&CELL
	cell_dofree = '2Dxy'
	cell_dynamics = 'damp-pr'
	press = 0.0
	press_conv_thr = 0.005
/

ATOMIC_SPECIES
  B 10.811  B.pbe-n-kjpaw_psl.1.0.0.UPF 
  N 14.0067 N.pbe-n-kjpaw_psl.1.0.0.UPF
  C 12.0107 C.pbe-n-kjpaw_psl.1.0.0.UPF

ATOMIC_POSITIONS (crystal)
B             0.0663047393        0.1328102519        0.5000000000
B             0.0673408832        0.3336094246        0.5000000000
B             0.0660491228        0.5336053575        0.5000000000
B             0.0663793976        0.7335436256        0.5000000000
B             0.0667311243        0.9332688762        0.5000000000
B             0.2663273642        0.1316069445        0.5000000000
B             0.2660624270        0.3295067204        0.5000000000
B             0.2667108239        0.5370217670        0.5000000000
B             0.2649935414        0.7350064587        0.5000000000
B             0.2664563744        0.9336206020        0.5000000000
B             0.4667831110        0.1336874353        0.5000000000
B             0.4660102358        0.3329755944        0.5000000000
C             0.4677434675        0.5322565325        0.5000000000
B             0.4629782329        0.7332891758        0.5000000000
B             0.4663946422        0.9339508769        0.5000000000
B             0.6666940349        0.1332643813        0.5000000000
B             0.6667112354        0.3332887637        0.5000000000
B             0.6670244045        0.5339897635        0.5000000000
B             0.6704932785        0.7339375725        0.5000000000
B             0.6663905748        0.9326591162        0.5000000000
B             0.8667822312        0.1332177688        0.5000000000
B             0.8667356184        0.3333059647        0.5000000000
B             0.8663125649        0.5332168892        0.5000000000
B             0.8683930555        0.7336726355        0.5000000000
B             0.8671897474        0.9336952606        0.5000000000
N             0.1332174591        0.0662695501        0.5000000000
N             0.1328476908        0.2654385047        0.5000000000
N             0.1331553086        0.4675272785        0.5000000000
N             0.1321123474        0.6669653933        0.5000000000
N             0.1331762008        0.8668237991        0.5000000000
N             0.3334877015        0.0663778743        0.5000000000
N             0.3330503285        0.2641404804        0.5000000000
C             0.3386632513        0.4683448024        0.5000000000
N             0.3306076240        0.6693923761        0.5000000000
N             0.3330346066        0.8678876522        0.5000000001
N             0.5334471825        0.0672947555        0.5000000000
N             0.5334883095        0.2672772458        0.4999999999
N             0.5327285980        0.4672714012        0.5000000000
C             0.5316551971        0.6613367485        0.5000000000
N             0.5324727207        0.8668446906        0.5000000000
N             0.7331883419        0.0662670023        0.5000000000
N             0.7333754683        0.2666245314        0.4999999999
N             0.7327227535        0.4665116898        0.5000000000
N             0.7358595184        0.6669496709        0.5000000000
N             0.7345614943        0.8671523088        0.5000000000
N             0.9333634356        0.0666365649        0.5000000000
N             0.9337329976        0.2668116580        0.5000000000
N             0.9327052444        0.4665528174        0.5000000000
N             0.9336221257        0.6665122984        0.5000000000
N             0.9337304504        0.8667825411        0.5000000000
    
 
K_POINTS automatic 
 2 2 1 0 0 0 

CELL_PARAMETERS alat
   1.002846344  -0.000647875   0.000000000
  -0.501981456   0.868168087   0.000000000
   0.000000000   0.000000000   1.192775420
