&CONTROL
	calculation = 'vc-relax'
	prefix = 'hBN'
	pseudo_dir ='./pseudo/'
	outdir='./TMP_DIR/'
	forc_conv_thr = 1.94E-10
	tstress = .true.
	tprnfor = .true.
	nstep = 2000
/
&SYSTEM
	ibrav = 0,
	celldm(1) = 23.764638453
	nat= 50,
	ntyp= 3,
	ecutwfc = 60,
	occupations = 'smearing'
	smearing = 'm-p'
	degauss = 0.01
	assume_isolated	= '2D'
	nosym = .true.
/
&ELECTRONS
	diagonalization = 'cg'
	conv_thr = 1.0E-12	
/
&IONS
	ion_dynamics="bfgs"
/
&CELL
	cell_dofree = '2Dxy'
	cell_dynamics = 'damp-pr'
	press = 0.0
	press_conv_thr = 0.005
/

ATOMIC_SPECIES
  B 10.811  B.pbe-n-kjpaw_psl.1.0.0.UPF 
  N 14.0067 N.pbe-n-kjpaw_psl.1.0.0.UPF
  C 12.0107 C.pbe-n-kjpaw_psl.1.0.0.UPF

ATOMIC_POSITIONS (crystal)
B             0.0663070357        0.1328279546        0.5000000000
B             0.0673452444        0.3336180249        0.5000000000
B             0.0660603226        0.5336045685        0.5000000000
B             0.0663836155        0.7335443652        0.5000000000
B             0.0667246254        0.9332753746        0.5000000000
B             0.2663368429        0.1316294743        0.5000000000
B             0.2661010393        0.3295337115        0.5000000000
B             0.2667496195        0.5370323070        0.5000000000
B             0.2650122899        0.7349877101        0.5000000000
B             0.2664556348        0.9336163845        0.5000000000
B             0.4667770035        0.1336851140        0.5000000000
B             0.4660207333        0.3329833373        0.5000000000
C             0.4677375405        0.5322624595        0.5000000000
B             0.4629676930        0.7332503805        0.5000000000
B             0.4663954315        0.9339396774        0.5000000000
B             0.6666855380        0.1332663247        0.5000000000
B             0.6667096018        0.3332903982        0.5000000000
B             0.6670166627        0.5339792667        0.5000000000
B             0.6704662885        0.7338989607        0.5000000000
B             0.6663819751        0.9326547556        0.5000000000
B             0.8667752084        0.1332247916        0.5000000000
B             0.8667336753        0.3333144620        0.5000000000
B             0.8663148860        0.5332229965        0.5000000000
B             0.8683705257        0.7336631571        0.5000000000
B             0.8671720454        0.9336929643        0.5000000000
N             0.1332176748        0.0662826852        0.5000000000
N             0.1328648775        0.2654566651        0.5000000000
N             0.1331757264        0.4675371994        0.5000000000
N             0.1321214873        0.6669658176        0.5000000000
N             0.1331727555        0.8668272445        0.5000000000
N             0.3334823364        0.0663794890        0.5000000000
N             0.3330674179        0.2641540843        0.5000000000
C             0.3386813069        0.4683509902        0.5000000000
N             0.3306172630        0.6693827370        0.5000000000
N             0.3330341824        0.8678785127        0.5000000000
N             0.5334393655        0.0672899358        0.5000000000
N             0.5334882831        0.2672789227        0.5000000000
N             0.5327250849        0.4672749151        0.5000000000
C             0.5316490098        0.6613186931        0.5000000000
N             0.5324628006        0.8668242736        0.5000000000
N             0.7331792202        0.0662670919        0.5000000000
N             0.7333722439        0.2666277561        0.5000000000
N             0.7327210773        0.4665117169        0.5000000000
N             0.7358459157        0.6669325821        0.5000000000
N             0.7345433349        0.8671351225        0.5000000000
N             0.9333567592        0.0666432408        0.5000000000
N             0.9337329081        0.2668207798        0.5000000000
N             0.9327100642        0.4665606345        0.5000000000
N             0.9336205110        0.6665176636        0.5000000000
N             0.9337173148        0.8667823252        0.5000000000     
 
K_POINTS automatic 
 2 2 1 0 0 0 

CELL_PARAMETERS alat
   1.002941383  -0.000645921   0.000000000
  -0.502030075   0.868249756   0.000000000
   0.000000000   0.000000000   1.192775420
