&CONTROL
	calculation = 'vc-relax'
	prefix = 'hBN'
	pseudo_dir ='./pseudo/'
	outdir='./TMP_DIR/'
	forc_conv_thr = 1.94E-10
	tstress = .true.
	tprnfor = .true.
	nstep = 2000
/
&SYSTEM
	ibrav = 0,
	celldm(1) = 23.764638453
	nat= 50,
	ntyp= 3,
	ecutwfc = 60,
	ecutrho = 500,
	occupations = 'smearing'
	smearing = 'm-p'
	degauss = 0.01
	assume_isolated	= '2D'
	!nosym = .true.
/
&ELECTRONS
	diagonalization = 'cg'
	conv_thr = 1.0E-12	
/
&IONS
	ion_dynamics="bfgs"
/
&CELL
	cell_dofree = '2Dxy'
	cell_dynamics = 'damp-pr'
	press = 0.0
	press_conv_thr = 0.005
/

ATOMIC_SPECIES
  B 10.811  B.pbe-n-kjpaw_psl.1.0.0.UPF 
  N 14.0067 N.pbe-n-kjpaw_psl.1.0.0.UPF
  C 12.0107 C.pbe-n-kjpaw_psl.1.0.0.UPF

ATOMIC_POSITIONS (crystal)
B             0.0663024116        0.1328124808        0.5000000000
B             0.0673421941        0.3336118117        0.5000000000
B             0.0660519231        0.5336081972        0.5000000000
B             0.0663801131        0.7335462748        0.5000000000
B             0.0667286513        0.9332713488        0.5000000000
B             0.2663253591        0.1316060213        0.5000000000
B             0.2660642316        0.3295061643        0.5000000000
B             0.2667141405        0.5370211581        0.5000000000
B             0.2649944742        0.7350055259        0.5000000000
B             0.2664537254        0.9336198872        0.5000000000
B             0.4667804786        0.1336846185        0.5000000000
B             0.4660115622        0.3329726226        0.5000000000
C             0.4677461111        0.5322538886        0.5000000000
B             0.4629788418        0.7332858595        0.5000000000
B             0.4663918027        0.9339480772        0.5000000000
B             0.6666915090        0.1332633161        0.5000000000
B             0.6667124477        0.3332875521        0.5000000000
B             0.6670273771        0.5339884375        0.5000000000
B             0.6704938355        0.7339357684        0.5000000000
B             0.6663881882        0.9326578062        0.5000000000
B             0.8667798432        0.1332201570        0.5000000000
B             0.8667366839        0.3333084908        0.5000000000
B             0.8663153816        0.5332195214        0.5000000000
B             0.8683939784        0.7336746409        0.5000000000
B             0.8671875195        0.9336975889        0.5000000000
N             0.1332155922        0.0662728782        0.5000000000
N             0.1328496249        0.2654421266        0.5000000000
N             0.1331587256        0.4675294224        0.5000000000
N             0.1321144732        0.6669667581        0.5000000000
N             0.1331743795        0.8668256202        0.5000000000
N             0.3334858096        0.0663772477        0.5000000000
N             0.3330519317        0.2641411506        0.5000000000
C             0.3386668634        0.4683437146        0.5000000000
N             0.3306096445        0.6693903557        0.5000000000
N             0.3330332421        0.8678855268        0.5000000001
N             0.5334442201        0.0672914085        0.5000000000
N             0.5334887381        0.2672757290        0.4999999999
N             0.5327310855        0.4672689149        0.5000000000
C             0.5316562857        0.6613331371        0.5000000000
N             0.5324705778        0.8668412744        0.5000000000
N             0.7331847983        0.0662651258        0.5000000000
N             0.7333757787        0.2666242214        0.4999999999
N             0.7327242712        0.4665112623        0.5000000000
N             0.7358588491        0.6669480685        0.5000000000
N             0.7345578734        0.8671503753        0.5000000000
N             0.9333607542        0.0666392453        0.5000000000
N             0.9337348740        0.2668152016        0.5000000000
N             0.9327085913        0.4665557801        0.5000000000
N             0.9336227517        0.6665141903        0.5000000000
N             0.9337271210        0.8667844074        0.5000000000
    
 
K_POINTS automatic 
 2 2 1 0 0 0 

CELL_PARAMETERS alat
   1.002844635  -0.000647646   0.000000000
  -0.501979802   0.868167068   0.000000000
   0.000000000   0.000000000   1.192775420
