&CONTROL
	calculation = 'bands'
	prefix = 'hBN'
	pseudo_dir ='./pseudo/'
	outdir='./TMP_DIR/'
	tstress = .true.
	tprnfor = .true.
/
&SYSTEM
	ibrav = 0,
	celldm(1) = 23.764638453
	nat= 50,
	ntyp= 3,
	ecutwfc = 60,
	occupations = 'smearing'
	smearing = 'm-p'
	degauss = 0.01
	assume_isolated	= '2D'
	!nosym = .true.
	nbnd = 200
/
&ELECTRONS
	diagonalization = 'cg'
	conv_thr = 1.0E-12	
/
&IONS
	ion_dynamics="bfgs"
/

ATOMIC_SPECIES
  B 10.811  B.pbe-n-kjpaw_psl.1.0.0.UPF 
  N 14.0067 N.pbe-n-kjpaw_psl.1.0.0.UPF
  C 12.0107 C.pbe-n-kjpaw_psl.1.0.0.UPF

ATOMIC_POSITIONS (crystal)
B             0.0663071177        0.1328282214        0.5000000000
B             0.0673460252        0.3336185999        0.5000000000
B             0.0660598862        0.5336053249        0.5000000000
B             0.0663827628        0.7335449498        0.5000000000
B             0.0667240170        0.9332759841        0.5000000000
B             0.2663366623        0.1316292352        0.5000000000
B             0.2661013790        0.3295340993        0.5000000000
B             0.2667494699        0.5370332601        0.5000000000
B             0.2650111763        0.7349888243        0.5000000000
B             0.2664550500        0.9336172369        0.5000000000
B             0.4667781005        0.1336852630        0.5000000000
B             0.4660204333        0.3329830024        0.5000000000
C             0.4677377852        0.5322622151        0.5000000000
B             0.4629667394        0.7332505291        0.5000000000
B             0.4663946747        0.9339401147        0.5000000000
B             0.6666870122        0.1332659616        0.5000000000
B             0.6667097251        0.3332902758        0.5000000000
B             0.6670169968        0.5339795649        0.5000000000
B             0.6704659005        0.7338986221        0.5000000000
B             0.6663814019        0.9326539751        0.5000000000
B             0.8667760440        0.1332239558        0.5000000000
B             0.8667340380        0.3333129873        0.5000000000
B             0.8663147362        0.5332218997        0.5000000000
B             0.8683707658        0.7336633380        0.5000000000
B             0.8671717775        0.9336928822        0.5000000000
N             0.1332182405        0.0662828978        0.5000000000
N             0.1328656567        0.2654575359        0.5000000000
N             0.1331753731        0.4675377412        0.5000000000
N             0.1321204828        0.6669662122        0.5000000000
N             0.1331721398        0.8668278604        0.4999999999
N             0.3334835489        0.0663804102        0.5000000000
N             0.3330677938        0.2641539563        0.5000000000
C             0.3386815152        0.4683515337        0.5000000000
N             0.3306166286        0.6693833705        0.5000000000
N             0.3330337876        0.8678795176        0.5000000000
N             0.5334407452        0.0672903531        0.5000000000
N             0.5334886276        0.2672785634        0.5000000000
N             0.5327253881        0.4672746109        0.5000000000
C             0.5316484660        0.6613184849        0.5000000000
N             0.5324622595        0.8668246270        0.5000000000
N             0.7331796990        0.0662664633        0.5000000000
N             0.7333725131        0.2666274869        0.5000000000
N             0.7327214368        0.4665113724        0.5000000000
N             0.7358460434        0.6669322061        0.5000000000
N             0.7345424645        0.8671343442        0.5000000000
N             0.9333572483        0.0666427507        0.5000000000
N             0.9337335365        0.2668203012        0.5000000000
N             0.9327096466        0.4665592545        0.5000000000
N             0.9336195895        0.6665164508        0.5000000000
N             0.9337171025        0.8667817604        0.5000000000
    
 
K_POINTS {crystal_b}
4
   0.0000000000     0.0000000000     0.0000000000 10   ! G
   0.5000000000     0.0000000000     0.0000000000 10   ! M
   0.3333333333     0.3333333333     0.0000000000 10   ! K
   0.0000000000     0.0000000000     0.0000000000 1    ! G

CELL_PARAMETERS alat
   1.002932361  -0.000644156   0.000000000
  -0.502020642   0.868244786   0.000000000
   0.000000000   0.000000000   1.192775420
