&CONTROL
	calculation = 'vc-relax'
	prefix = 'hBN'
	pseudo_dir ='./pseudo/'
	outdir='./TMP_DIR/'
	forc_conv_thr = 1.94E-10
	tstress = .true.
	tprnfor = .true.
	nstep = 2000
/
&SYSTEM
	ibrav = 0,
	celldm(1) = 23.764638453
	nat= 50,
	ntyp= 3,
	ecutwfc = 60,
	ecutrho = 500,
	occupations = 'smearing'
	smearing = 'm-p'
	degauss = 0.01
	assume_isolated	= '2D'
	!nosym = .true.
/
&ELECTRONS
	diagonalization = 'cg'
	conv_thr = 1.0E-12	
/
&IONS
	ion_dynamics="bfgs"
/
&CELL
	cell_dofree = '2Dxy'
	cell_dynamics = 'damp-pr'
	press = 0.0
	press_conv_thr = 0.005
/

ATOMIC_SPECIES
  B 10.811  B.pbe-n-kjpaw_psl.1.0.0.UPF 
  N 14.0067 N.pbe-n-kjpaw_psl.1.0.0.UPF
  C 12.0107 C.pbe-n-kjpaw_psl.1.0.0.UPF

ATOMIC_POSITIONS (crystal)
B             0.0663036430        0.1328114711        0.5000000000
B             0.0673415010        0.3336106776        0.5000000000
B             0.0660507040        0.5336065462        0.5000000000
B             0.0663797800        0.7335446866        0.5000000000
B             0.0667299915        0.9332700084        0.5000000000
B             0.2663263872        0.1316067452        0.5000000000
B             0.2660629921        0.3295064793        0.5000000000
B             0.2667123904        0.5370213999        0.5000000000
B             0.2649940235        0.7350059764        0.5000000000
B             0.2664553135        0.9336202197        0.5000000000
B             0.4667820544        0.1336861136        0.5000000000
B             0.4660107889        0.3329743435        0.5000000000
C             0.4677448732        0.5322551260        0.5000000000
B             0.4629785996        0.7332876097        0.5000000000
B             0.4663934542        0.9339492961        0.5000000000
B             0.6666928113        0.1332638499        0.5000000000
B             0.6667116887        0.3332883113        0.5000000000
B             0.6670256562        0.5339892112        0.5000000000
B             0.6704935199        0.7339370075        0.5000000000
B             0.6663893220        0.9326584991        0.5000000000
B             0.8667810358        0.1332189640        0.5000000000
B             0.8667361502        0.3333071888        0.5000000000
B             0.8663138866        0.5332179460        0.5000000000
B             0.8683932547        0.7336736131        0.5000000000
B             0.8671885284        0.9336963566        0.5000000000
N             0.1332163180        0.0662706038        0.5000000000
N             0.1328480418        0.2654395848        0.5000000000
N             0.1331568731        0.4675283130        0.5000000000
N             0.1321130812        0.6669663576        0.5000000000
N             0.1331752749        0.8668247247        0.5000000000
N             0.3334865422        0.0663773424        0.5000000000
N             0.3330506862        0.2641400795        0.5000000000
C             0.3386647159        0.4683441740        0.5000000000
N             0.3306083024        0.6693916964        0.5000000000
N             0.3330336422        0.8678869181        0.5000000001
N             0.5334458316        0.0672932710        0.5000000000
N             0.5334885412        0.2672759982        0.4999999999
N             0.5327299038        0.4672700959        0.5000000000
C             0.5316558246        0.6613352830        0.5000000000
N             0.5324716865        0.8668431263        0.5000000000
N             0.7331869692        0.0662667073        0.5000000000
N             0.7333756590        0.2666243408        0.4999999999
N             0.7327240016        0.4665114587        0.5000000000
N             0.7358599197        0.6669493136        0.5000000000
N             0.7345604143        0.8671519576        0.5000000000
N             0.9333621399        0.0666378593        0.5000000000
N             0.9337332926        0.2668130304        0.5000000000
N             0.9327067288        0.4665541685        0.5000000000
N             0.9336226572        0.6665134579        0.5000000000
N             0.9337293957        0.8667836818        0.5000000000
    
 
K_POINTS automatic 
 2 2 1 0 0 0 

CELL_PARAMETERS alat
   1.002846327  -0.000647872   0.000000000
  -0.501981429   0.868168090   0.000000000
   0.000000000   0.000000000   1.192775420
