&CONTROL
	calculation = 'vc-relax'
	restart_mode = 'from_scratch'
	prefix = 'C2Cn'
	pseudo_dir ='./pseudo/'
	outdir='./TMP_DIR/'
	etot_conv_thr = 1.0E-6		
	forc_conv_thr = 1.94E-5
	tstress = .true.		
/
&SYSTEM
	ibrav = 0,
	celldm(1) = 33.23461096
	nat= 98,
	ntyp= 5,
	ecutwfc = 40.0
	nbnd = 245
	occupations = 'from_input' 
	nspin = 2,			! required for spin polarized calc
	starting_magnetization(3) = 1
	vdw_corr = 'Grimme-D3'
/
&ELECTRONS
	diagonalization = 'cg'
	conv_thr = 1.0E-10		! get to -12
/
&IONS
	ion_dynamics="bfgs"
/
&CELL
	cell_dofree = "2Dxy"
	cell_dynamics = 'bfgs'
	press = 0.0
	press_conv_thr = 0.1
	cell_factor = 4.0
/

ATOMIC_SPECIES
  B  10 B.pbe-n-kjpaw_psl.1.0.0.UPF
  N  14 N.pbe-n-kjpaw_psl.1.0.0.UPF
  C1 12 C.pbe-n-kjpaw_psl.1.0.0.UPF
  C2 12 C.pbe-n-kjpaw_psl.1.0.0.UPF
  C3 12 C.pbe-n-kjpaw_psl.1.0.0.UPF

ATOMIC_POSITIONS {crystal}
B        0.047300185   0.094775071   0.500000000
B        0.047403242   0.237896744   0.500000000
B        0.047369086   0.380879494   0.500000000
B        0.047275955   0.523669406   0.500000000
B        0.047753924   0.666565519   0.500000000
B        0.047967533   0.809581959   0.500000000
B        0.047704783   0.952295246   0.500000000
B        0.189895102   0.094334835   0.500000000
B        0.189418511   0.236827172   0.500000000
B        0.190387211   0.380961880   0.500000000
B        0.189773160   0.523394859   0.500000000
B        0.189910929   0.666644792   0.500000000
B        0.190478487   0.809521523   0.500000000
B        0.190418044   0.952032473   0.500000000
B        0.333137762   0.094238418   0.500000000
B        0.332436926   0.235902704   0.500000000
B        0.332212239   0.378167937   0.500000000
B        0.333066492   0.524644982   0.500000000
B        0.332238897   0.667761089   0.500000000
B        0.333355190   0.810089088   0.500000000
B        0.333434473   0.952246096   0.500000000
B        0.476250786   0.095181906   0.500000000
B        0.475902337   0.237859739   0.500000000
B        0.473937423   0.379409795   0.500000000
C2       0.476628491   0.523370866   0.500000000
B        0.475354896   0.666933480   0.500000000
B        0.476605095   0.810226869   0.500000000
B        0.476330581   0.952724053   0.500000000
B        0.618962663   0.095338436   0.500000000
B        0.618874851   0.238174823   0.500000000
B        0.618744642   0.381255301   0.500000000
B        0.620590175   0.526062465   0.500000000
B        0.621832088   0.667787779   0.500000000
B        0.619038141   0.809612856   0.500000000
B        0.619120501   0.952630947   0.500000000
B        0.761810338   0.095349573   0.500000000
B        0.761749684   0.238250308   0.500000000
B        0.761825165   0.381125135   0.500000000
B        0.762140273   0.524097653   0.500000000
B        0.764097334   0.667563070   0.500000000
B        0.763172878   0.810581523   0.500000000
B        0.762103290   0.952596799   0.500000000
B        0.904787611   0.095212404   0.500000000
B        0.904650449   0.238189677   0.500000000
B        0.904661573   0.381037329   0.500000000
B        0.904818085   0.523749204   0.500000000
B        0.905761577   0.666862227   0.500000000
B        0.905665212   0.810104927   0.500000000
B        0.905224966   0.952699848   0.500000000
N        0.094973891   0.047191286   0.500000000
N        0.094516485   0.189696579   0.500000000
N        0.094895321   0.333132804   0.500000000
N        0.094618979   0.476018113   0.500000000
N        0.094915196   0.618874745   0.500000000
N        0.095363054   0.761801852   0.500000000
N        0.095345828   0.904654142   0.500000000
N        0.237965173   0.047064776   0.500000000
N        0.237322886   0.189227720   0.500000000
N        0.236861980   0.331692038   0.500000000
N        0.237094758   0.476073848   0.500000000
N        0.237276333   0.619133615   0.500000000
N        0.238036226   0.761963804   0.500000000
N        0.238198147   0.904636934   0.500000000
N        0.381094447   0.047306007   0.500000000
N        0.380840596   0.189358298   0.500000000
N        0.380001941   0.330388502   0.500000000
C1       0.383094523   0.476001884   0.500000000
N        0.379683509   0.620316668   0.500000000
N        0.380866456   0.762723697   0.500000000
N        0.381125270   0.905084787   0.500000000
N        0.523894770   0.047857388   0.500000000
N        0.523763966   0.190606584   0.500000000
N        0.523334028   0.333796996   0.500000000
N        0.522386976   0.477613193   0.500000000
C3       0.523998412   0.616905841   0.500000000
N        0.523926191   0.762905218   0.500000000
N        0.523981892   0.905380988   0.500000000
N        0.666663096   0.047901375   0.500000000
N        0.666509087   0.190706097   0.500000000
N        0.666283397   0.333716602   0.500000000
N        0.666202999   0.476666038   0.500000000
N        0.669611488   0.619998142   0.500000000
N        0.668307897   0.763137936   0.500000000
N        0.666867168   0.905104629   0.500000000
N        0.809558139   0.047802692   0.500000000
N        0.809368397   0.190631592   0.500000000
N        0.809293905   0.333490911   0.500000000
N        0.809393411   0.476236047   0.500000000
N        0.810641677   0.619159424   0.500000000
N        0.810772208   0.762677075   0.500000000
N        0.810303382   0.905483469   0.500000000
N        0.952390969   0.047608986   0.500000000
N        0.952197276   0.190441829   0.500000000
N        0.952098602   0.333336896   0.500000000
N        0.952142592   0.476105236   0.500000000
N        0.952693984   0.618905562   0.500000000
N        0.952935191   0.762034816   0.500000000
N        0.952808667   0.905026069   0.500000000


K_POINTS gamma 

CELL_PARAMETERS alat
   1.000283576   0.000429078   0.000000000
  -0.499770195   0.866485535   0.000000000
   0.000000000   0.000000000   1.137203616


OCCUPATIONS
  1.0 1.0 1.0 1.0 1.0 1.0 1.0 1.0
  1.0 1.0 1.0 1.0 1.0 1.0 1.0 1.0
  1.0 1.0 1.0 1.0 1.0 1.0 1.0 1.0
  1.0 1.0 1.0 1.0 1.0 1.0 1.0 1.0
  1.0 1.0 1.0 1.0 1.0 1.0 1.0 1.0
  1.0 1.0 1.0 1.0 1.0 1.0 1.0 1.0
  1.0 1.0 1.0 1.0 1.0 1.0 1.0 1.0
  1.0 1.0 1.0 1.0 1.0 1.0 1.0 1.0
  1.0 1.0 1.0 1.0 1.0 1.0 1.0 1.0
  1.0 1.0 1.0 1.0 1.0 1.0 1.0 1.0
  1.0 1.0 1.0 1.0 1.0 1.0 1.0 1.0
  1.0 1.0 1.0 1.0 1.0 1.0 1.0 1.0
  1.0 1.0 1.0 1.0 1.0 1.0 1.0 1.0
  1.0 1.0 1.0 1.0 1.0 1.0 1.0 1.0
  1.0 1.0 1.0 1.0 1.0 1.0 1.0 1.0
  1.0 1.0 1.0 1.0 1.0 1.0 1.0 1.0
  1.0 1.0 1.0 1.0 1.0 1.0 1.0 1.0
  1.0 1.0 1.0 1.0 1.0 1.0 1.0 1.0
  1.0 1.0 1.0 1.0 1.0 1.0 1.0 1.0
  1.0 1.0 1.0 1.0 1.0 1.0 1.0 1.0
  1.0 1.0 1.0 1.0 1.0 1.0 1.0 1.0
  1.0 1.0 1.0 1.0 1.0 1.0 1.0 1.0
  1.0 1.0 1.0 1.0 1.0 1.0 1.0 1.0
  1.0 1.0 1.0 1.0 1.0 1.0 1.0 1.0
  1.0 1.0 1.0 1.0 0.0 0.0 0.0 0.0
  0.0 0.0 0.0 0.0 0.0 0.0 0.0 0.0
  0.0 0.0 0.0 0.0 0.0 0.0 0.0 0.0
  0.0 0.0 0.0 0.0 0.0 0.0 0.0 0.0
  0.0 0.0 0.0 0.0 0.0 0.0 0.0 0.0
  0.0 0.0 0.0 0.0 0.0 0.0 0.0 0.0
  0.0 0.0 0.0 0.0 0.0
  1.0 1.0 1.0 1.0 1.0 1.0 1.0 1.0
  1.0 1.0 1.0 1.0 1.0 1.0 1.0 1.0
  1.0 1.0 1.0 1.0 1.0 1.0 1.0 1.0
  1.0 1.0 1.0 1.0 1.0 1.0 1.0 1.0
  1.0 1.0 1.0 1.0 1.0 1.0 1.0 1.0
  1.0 1.0 1.0 1.0 1.0 1.0 1.0 1.0
  1.0 1.0 1.0 1.0 1.0 1.0 1.0 1.0
  1.0 1.0 1.0 1.0 1.0 1.0 1.0 1.0
  1.0 1.0 1.0 1.0 1.0 1.0 1.0 1.0
  1.0 1.0 1.0 1.0 1.0 1.0 1.0 1.0
  1.0 1.0 1.0 1.0 1.0 1.0 1.0 1.0
  1.0 1.0 1.0 1.0 1.0 1.0 1.0 1.0
  1.0 1.0 1.0 1.0 1.0 1.0 1.0 1.0
  1.0 1.0 1.0 1.0 1.0 1.0 1.0 1.0
  1.0 1.0 1.0 1.0 1.0 1.0 1.0 1.0
  1.0 1.0 1.0 1.0 1.0 1.0 1.0 1.0
  1.0 1.0 1.0 1.0 1.0 1.0 1.0 1.0
  1.0 1.0 1.0 1.0 1.0 1.0 1.0 1.0
  1.0 1.0 1.0 1.0 1.0 1.0 1.0 1.0
  1.0 1.0 1.0 1.0 1.0 1.0 1.0 1.0
  1.0 1.0 1.0 1.0 1.0 1.0 1.0 1.0
  1.0 1.0 1.0 1.0 1.0 1.0 1.0 1.0
  1.0 1.0 1.0 1.0 1.0 1.0 1.0 1.0
  1.0 1.0 1.0 1.0 1.0 1.0 1.0 1.0
  1.0 1.0 0.0 1.0 0.0 0.0 0.0 0.0
  0.0 0.0 0.0 0.0 0.0 0.0 0.0 0.0
  0.0 0.0 0.0 0.0 0.0 0.0 0.0 0.0
  0.0 0.0 0.0 0.0 0.0 0.0 0.0 0.0
  0.0 0.0 0.0 0.0 0.0 0.0 0.0 0.0
  0.0 0.0 0.0 0.0 0.0 0.0 0.0 0.0
  0.0 0.0 0.0 0.0 0.0
  
