&CONTROL
	calculation = 'scf'
	restart_mode = 'from_scratch'
	prefix = 'hBN'
	pseudo_dir ='./pseudo/'
	outdir='./TMP_DIR/'
	tstress = .true.
	tprnfor = .true.
/
&SYSTEM
	ibrav = 0,
	celldm(1) = 23.770211255
	nat= 50,
	ntyp= 3,
	ecutwfc = 60,
    	ecutrho = 500
	occupations = 'smearing'
	smearing = 'm-p'
	degauss = 0.01
	assume_isolated	= '2D'
	!nosym = .true.
/
&ELECTRONS
	diagonalization = 'cg'
	conv_thr = 1.0E-12	
/
&IONS
	ion_dynamics="bfgs"
/

ATOMIC_SPECIES
  B 10.811  B.pbe-n-kjpaw_psl.1.0.0.UPF
  N 14.0067 N.pbe-n-kjpaw_psl.1.0.0.UPF
  C 12.0107 C.pbe-n-kjpaw_psl.1.0.0.UPF

ATOMIC_POSITIONS (crystal)
B             0.0663053806        0.1328096050        0.5000000000
B             0.0673406912        0.3336087727        0.5000000000
B             0.0660484125        0.5336047097        0.5000000000
B             0.0663792027        0.7335429878        0.5000000001
B             0.0667317655        0.9332682375        0.5000000000
B             0.2663280043        0.1316071304        0.5000000000
B             0.2660622477        0.3295069004        0.5000000000
B             0.2667101194        0.5370219542        0.5000000000
B             0.2649933460        0.7350066571        0.5000000000
B             0.2664570145        0.9336207990        0.5000000000
B             0.4667837444        0.1336881418        0.4999999999
B             0.4660100359        0.3329763018        0.5000000000
C             0.4677427621        0.5322572399        0.5000000000
B             0.4629780490        0.7332898835        0.5000000000
B             0.4663952937        0.9339515900        0.5000000000
B             0.6666946724        0.1332645827        0.5000000000
B             0.6667110328        0.3332889683        0.5000000000
B             0.6670236999        0.5339899661        0.5000000000
B             0.6704931021        0.7339377537        0.5000000000
B             0.6663912293        0.9326593101        0.5000000000
B             0.8667828743        0.1332171293        0.5000000000
B             0.8667354195        0.3333053293        0.5000000000
B             0.8663118612        0.5332162594        0.5000000000
B             0.8683928725        0.7336719972        0.5000000000
B             0.8671903980        0.9336946218        0.5000000000
N             0.1332181558        0.0662690028        0.5000000000
N             0.1328476335        0.2654379477        0.5000000000
N             0.1331546371        0.4675267363        0.5000000000
N             0.1321120297        0.6669648455        0.5000000001
N             0.1331767420        0.8668232599        0.5000000001
N             0.3334884019        0.0663781874        0.4999999999
N             0.3330502709        0.2641407805        0.5000000000
C             0.3386625602        0.4683451426        0.5000000000
N             0.3306073209        0.6693926823        0.5000000000
N             0.3330351577        0.8678879728        0.5000000000
N             0.5334478862        0.0672954421        0.5000000000
N             0.5334882457        0.2672779242        0.5000000000
N             0.5327279226        0.4672720791        0.5000000000
C             0.5316548600        0.6613374419        0.5000000000
N             0.5324732663        0.8668453651        0.5000000000
N             0.7331890466        0.0662670567        0.5000000000
N             0.7333754099        0.2666245916        0.5000000000
N             0.7327220779        0.4665117563        0.5000000001
N             0.7358592222        0.6669497307        0.4999999999
N             0.7345620548        0.8671523682        0.5000000000
N             0.9333641404        0.0666358629        0.5000000000
N             0.9337329458        0.2668109557        0.5000000000
N             0.9327045607        0.4665521168        0.5000000000
N             0.9336218156        0.6665116009        0.5000000000
N             0.9337310004        0.8667818464        0.5000000000

 
K_POINTS automatic 
 2 2 1 0 0 0 

CELL_PARAMETERS alat
   1.002611239  -0.000646093   0.000000000
  -0.501865195   0.867963731   0.000000000
   0.000000000   0.000000000   1.192496336

