&inputpp
  prefix='hBN',
  outdir='./TMP_DIR/',
  first_band=99
  last_band=99
  loctave=.true.
  first_k=1, last_k=1
/

