&CONTROL
	calculation = 'vc-relax'
	restart_mode = 'from_scratch'
	prefix = 'C2Cn'
	pseudo_dir ='./pseudo/'
	outdir='./TMP_DIR/'
	etot_conv_thr = 1.0E-6		
	forc_conv_thr = 1.94E-5
	tstress = .true.		
/
&SYSTEM
	ibrav = 0,
	celldm(1) = 33.23461096
	nat= 98,
	ntyp= 5,
	ecutwfc = 40.0
	nbnd = 245
	occupations = 'from_input' 
	nspin = 2,			! required for spin polarized calc
	starting_magnetization(3) = 1
	vdw_corr = 'Grimme-D3'
/
&ELECTRONS
	diagonalization = 'cg'
	conv_thr = 1.0E-10		! get to -12
/
&IONS
	ion_dynamics="bfgs"
/
&CELL
	cell_dofree = "2Dxy"
	cell_dynamics = 'bfgs'
	press = 0.0
	press_conv_thr = 0.1
	cell_factor = 4.0
/

ATOMIC_SPECIES
  B  10 B.pbe-n-kjpaw_psl.1.0.0.UPF
  N  14 N.pbe-n-kjpaw_psl.1.0.0.UPF
  C1 12 C.pbe-n-kjpaw_psl.1.0.0.UPF
  C2 12 C.pbe-n-kjpaw_psl.1.0.0.UPF
  C3 12 C.pbe-n-kjpaw_psl.1.0.0.UPF

ATOMIC_POSITIONS {crystal}
B        0.047414655   0.094845351   0.500000000
B        0.047723337   0.238009521   0.500000000
B        0.047633298   0.381031774   0.500000000
B        0.047243689   0.523762391   0.500000000
B        0.047532100   0.666615858   0.500000000
B        0.047802952   0.809613404   0.500000000
B        0.047659710   0.952339676   0.500000000
B        0.190080201   0.094546374   0.500000000
B        0.189789425   0.237095705   0.500000000
B        0.190886006   0.381100739   0.500000000
B        0.189703254   0.524059771   0.500000000
B        0.189634065   0.666928088   0.500000000
B        0.190316944   0.809682956   0.500000000
B        0.190386421   0.952196696   0.500000000
B        0.333325059   0.094544306   0.500000000
B        0.332893199   0.236230258   0.500000000
B        0.332526466   0.377770387   0.500000000
B        0.333074935   0.526660868   0.500000000
B        0.331755610   0.668245308   0.500000000
B        0.333072193   0.810365878   0.500000000
B        0.333383957   0.952467497   0.500000000
B        0.476349434   0.095233207   0.500000000
B        0.476332529   0.238084496   0.500000000
B        0.475651064   0.380695102   0.500000000
C2       0.476854699   0.523146579   0.500000000
B        0.473339887   0.666925552   0.500000000
B        0.475940708   0.810296693   0.500000000
B        0.476238119   0.952754984   0.500000000
B        0.619010422   0.095173142   0.500000000
B        0.619123345   0.238058735   0.500000000
B        0.619041956   0.380958928   0.500000000
B        0.619304372   0.524349320   0.500000000
B        0.622228423   0.667473095   0.500000000
B        0.618898975   0.809113355   0.500000000
B        0.618967911   0.952365462   0.500000000
B        0.761883685   0.095132847   0.500000000
B        0.761923212   0.238077019   0.500000000
B        0.761941633   0.380877116   0.500000000
B        0.761916525   0.523668419   0.500000000
B        0.763771062   0.667107713   0.500000000
B        0.762905334   0.810210705   0.500000000
B        0.761989856   0.952275442   0.500000000
B        0.904869867   0.095129907   0.500000000
B        0.904867078   0.238116372   0.500000000
B        0.904826877   0.380990026   0.500000000
B        0.904766837   0.523650652   0.500000000
B        0.905454303   0.666674528   0.500000000
B        0.905452088   0.809918924   0.500000000
B        0.905152920   0.952583966   0.500000000
N        0.095053973   0.047328972   0.500000000
N        0.094799380   0.189883170   0.500000000
N        0.095499769   0.333452624   0.500000000
N        0.094683829   0.476173582   0.500000000
N        0.094685007   0.618962894   0.500000000
N        0.095151039   0.761896438   0.500000000
N        0.095247358   0.904753003   0.500000000
N        0.238034726   0.047298154   0.500000000
N        0.237719130   0.189618971   0.500000000
N        0.237429590   0.332030629   0.500000000
N        0.237771612   0.476844742   0.500000000
N        0.236776466   0.619410076   0.500000000
N        0.237762742   0.762237124   0.500000000
N        0.238103868   0.904849350   0.500000000
N        0.381136676   0.047478061   0.500000000
N        0.381040357   0.189593704   0.500000000
N        0.380557490   0.331154182   0.500000000
C1       0.384514052   0.477351667   0.500000000
N        0.378730247   0.621269511   0.500000000
N        0.380589943   0.763223005   0.500000000
N        0.381036704   0.905315455   0.500000000
N        0.523927982   0.047819787   0.500000000
N        0.523935095   0.190542083   0.500000000
N        0.523837811   0.333624954   0.500000000
N        0.523345248   0.476655940   0.500000000
C3       0.522649684   0.615486719   0.500000000
N        0.523155969   0.762227659   0.500000000
N        0.523825675   0.905314960   0.500000000
N        0.666657439   0.047583569   0.500000000
N        0.666691749   0.190441175   0.500000000
N        0.666659378   0.333339710   0.500000000
N        0.666374496   0.476161682   0.500000000
N        0.668845073   0.619441897   0.500000000
N        0.667967380   0.762569484   0.500000000
N        0.666546303   0.904498935   0.500000000
N        0.809553741   0.047545698   0.500000000
N        0.809557173   0.190443750   0.500000000
N        0.809559252   0.333308021   0.500000000
N        0.809458688   0.476064263   0.500000000
N        0.810406305   0.618959823   0.500000000
N        0.810380453   0.762280381   0.500000000
N        0.810117348   0.905200737   0.500000000
N        0.952431125   0.047570318   0.500000000
N        0.952456063   0.190447638   0.500000000
N        0.952417695   0.333342820   0.500000000
N        0.952181000   0.476071730   0.500000000
N        0.952522584   0.618863393   0.500000000
N        0.952702600   0.761965704   0.500000000
N        0.952672132   0.904946772   0.500000000


K_POINTS gamma

CELL_PARAMETERS alat
   1.000651543  -0.000353824   0.000000000
  -0.500632192   0.866412688   0.000000000
   0.000000000   0.000000000   1.137203616
 

OCCUPATIONS
  1.0 1.0 1.0 1.0 1.0 1.0 1.0 1.0
  1.0 1.0 1.0 1.0 1.0 1.0 1.0 1.0
  1.0 1.0 1.0 1.0 1.0 1.0 1.0 1.0
  1.0 1.0 1.0 1.0 1.0 1.0 1.0 1.0
  1.0 1.0 1.0 1.0 1.0 1.0 1.0 1.0
  1.0 1.0 1.0 1.0 1.0 1.0 1.0 1.0
  1.0 1.0 1.0 1.0 1.0 1.0 1.0 1.0
  1.0 1.0 1.0 1.0 1.0 1.0 1.0 1.0
  1.0 1.0 1.0 1.0 1.0 1.0 1.0 1.0
  1.0 1.0 1.0 1.0 1.0 1.0 1.0 1.0
  1.0 1.0 1.0 1.0 1.0 1.0 1.0 1.0
  1.0 1.0 1.0 1.0 1.0 1.0 1.0 1.0
  1.0 1.0 1.0 1.0 1.0 1.0 1.0 1.0
  1.0 1.0 1.0 1.0 1.0 1.0 1.0 1.0
  1.0 1.0 1.0 1.0 1.0 1.0 1.0 1.0
  1.0 1.0 1.0 1.0 1.0 1.0 1.0 1.0
  1.0 1.0 1.0 1.0 1.0 1.0 1.0 1.0
  1.0 1.0 1.0 1.0 1.0 1.0 1.0 1.0
  1.0 1.0 1.0 1.0 1.0 1.0 1.0 1.0
  1.0 1.0 1.0 1.0 1.0 1.0 1.0 1.0
  1.0 1.0 1.0 1.0 1.0 1.0 1.0 1.0
  1.0 1.0 1.0 1.0 1.0 1.0 1.0 1.0
  1.0 1.0 1.0 1.0 1.0 1.0 1.0 1.0
  1.0 1.0 1.0 1.0 1.0 1.0 1.0 1.0
  1.0 1.0 1.0 1.0 0.0 0.0 0.0 0.0
  0.0 0.0 0.0 0.0 0.0 0.0 0.0 0.0
  0.0 0.0 0.0 0.0 0.0 0.0 0.0 0.0
  0.0 0.0 0.0 0.0 0.0 0.0 0.0 0.0
  0.0 0.0 0.0 0.0 0.0 0.0 0.0 0.0
  0.0 0.0 0.0 0.0 0.0 0.0 0.0 0.0
  0.0 0.0 0.0 0.0 0.0
  1.0 1.0 1.0 1.0 1.0 1.0 1.0 1.0
  1.0 1.0 1.0 1.0 1.0 1.0 1.0 1.0
  1.0 1.0 1.0 1.0 1.0 1.0 1.0 1.0
  1.0 1.0 1.0 1.0 1.0 1.0 1.0 1.0
  1.0 1.0 1.0 1.0 1.0 1.0 1.0 1.0
  1.0 1.0 1.0 1.0 1.0 1.0 1.0 1.0
  1.0 1.0 1.0 1.0 1.0 1.0 1.0 1.0
  1.0 1.0 1.0 1.0 1.0 1.0 1.0 1.0
  1.0 1.0 1.0 1.0 1.0 1.0 1.0 1.0
  1.0 1.0 1.0 1.0 1.0 1.0 1.0 1.0
  1.0 1.0 1.0 1.0 1.0 1.0 1.0 1.0
  1.0 1.0 1.0 1.0 1.0 1.0 1.0 1.0
  1.0 1.0 1.0 1.0 1.0 1.0 1.0 1.0
  1.0 1.0 1.0 1.0 1.0 1.0 1.0 1.0
  1.0 1.0 1.0 1.0 1.0 1.0 1.0 1.0
  1.0 1.0 1.0 1.0 1.0 1.0 1.0 1.0
  1.0 1.0 1.0 1.0 1.0 1.0 1.0 1.0
  1.0 1.0 1.0 1.0 1.0 1.0 1.0 1.0
  1.0 1.0 1.0 1.0 1.0 1.0 1.0 1.0
  1.0 1.0 1.0 1.0 1.0 1.0 1.0 1.0
  1.0 1.0 1.0 1.0 1.0 1.0 1.0 1.0
  1.0 1.0 1.0 1.0 1.0 1.0 1.0 1.0
  1.0 1.0 1.0 1.0 1.0 1.0 1.0 1.0
  1.0 1.0 1.0 1.0 1.0 1.0 1.0 1.0
  1.0 1.0 1.0 0.0 0.0 0.0 0.0 0.0
  0.0 0.0 0.0 0.0 0.0 0.0 0.0 0.0
  0.0 0.0 0.0 0.0 0.0 0.0 0.0 0.0
  0.0 0.0 0.0 0.0 0.0 0.0 0.0 0.0
  0.0 0.0 0.0 0.0 0.0 0.0 0.0 0.0
  0.0 0.0 0.0 0.0 0.0 0.0 0.0 0.0
  0.0 0.0 0.0 0.0 0.0
  
