&CONTROL
	calculation = 'vc-relax'
	prefix = 'hBN'
	pseudo_dir ='./pseudo/'
	outdir='./TMP_DIR/'
	forc_conv_thr = 1.94E-10
	tstress = .true.
	tprnfor = .true.
	nstep = 2000
/
&SYSTEM
	ibrav = 0,
	celldm(1) = 23.764638453
	nat= 50,
	ntyp= 3,
	ecutwfc = 60,
	ecutrho = 500,
	occupations = 'smearing'
	smearing = 'm-p'
	degauss = 0.01
	assume_isolated	= '2D'
	!nosym = .true.
/
&ELECTRONS
	diagonalization = 'cg'
	conv_thr = 1.0E-12	
/
&IONS
	ion_dynamics="bfgs"
/
&CELL
	cell_dofree = '2Dxy'
	cell_dynamics = 'damp-pr'
	press = 0.0
	press_conv_thr = 0.005
/

ATOMIC_SPECIES
  B 10.811  B.pbe-n-kjpaw_psl.1.0.0.UPF 
  N 14.0067 N.pbe-n-kjpaw_psl.1.0.0.UPF
  C 12.0107 C.pbe-n-kjpaw_psl.1.0.0.UPF

ATOMIC_POSITIONS (crystal)
B             0.0663051599        0.1328098140        0.5000000000
B             0.0673407051        0.3336089835        0.5000000000
B             0.0660485854        0.5336049221        0.5000000000
B             0.0663792349        0.7335432001        0.5000000000
B             0.0667315524        0.9332684485        0.5000000000
B             0.2663277827        0.1316070957        0.5000000000
B             0.2660622608        0.3295068668        0.5000000000
B             0.2667102891        0.5370219191        0.5000000000
B             0.2649933786        0.7350066217        0.5000000000
B             0.2664567998        0.9336207643        0.5000000000
B             0.4667835256        0.1336879623        0.5000000000
B             0.4660100571        0.3329761203        0.5000000000
C             0.4677429392        0.5322570613        0.5000000000
B             0.4629780808        0.7332897095        0.5000000000
B             0.4663950767        0.9339514145        0.5000000000
B             0.6666944554        0.1332645600        0.5000000000
B             0.6667110576        0.3332889420        0.5000000000
B             0.6670238791        0.5339899423        0.5000000000
B             0.6704931326        0.7339377390        0.5000000000
B             0.6663910171        0.9326592942        0.5000000000
B             0.8667826556        0.1332173450        0.5000000000
B             0.8667354401        0.3333055443        0.5000000000
B             0.8663120377        0.5332164744        0.5000000000
B             0.8683929039        0.7336722164        0.5000000000
B             0.8671901846        0.9336948397        0.5000000000
N             0.1332179200        0.0662691836        0.5000000000
N             0.1328476094        0.2654381295        0.5000000000
N             0.1331547940        0.4675269147        0.5000000000
N             0.1321120962        0.6669650295        0.5000000000
N             0.1331765576        0.8668234424        0.5000000000
N             0.3334881645        0.0663781178        0.5000000000
N             0.3330502494        0.2641407123        0.5000000000
C             0.3386627304        0.4683450652        0.5000000000
N             0.3306073842        0.6693926152        0.5000000000
N             0.3330349701        0.8678879036        0.5000000001
N             0.5334476503        0.0672952737        0.5000000000
N             0.5334882290        0.2672777534        0.4999999999
N             0.5327280902        0.4672719095        0.5000000000
C             0.5316549346        0.6613372693        0.5000000000
N             0.5324730849        0.8668452049        0.5000000000
N             0.7331888133        0.0662670794        0.5000000000
N             0.7333753918        0.2666246082        0.4999999999
N             0.7327222463        0.4665117708        0.5000000000
N             0.7358592868        0.6669497501        0.5000000000
N             0.7345618698        0.8671523900        0.5000000000
N             0.9333639042        0.0666360956        0.5000000000
N             0.9337329206        0.2668111871        0.5000000000
N             0.9327047265        0.4665523491        0.5000000000
N             0.9336218818        0.6665118351        0.5000000000
N             0.9337308160        0.8667820798        0.5000000000
    
 
K_POINTS automatic 
 2 2 1 0 0 0 

CELL_PARAMETERS alat
   1.002846348  -0.000647878   0.000000000
  -0.501981464   0.868168087   0.000000000
   0.000000000   0.000000000   1.192775420
