&CONTROL
	calculation = 'nscf'
	prefix = 'hBN'
	pseudo_dir ='./pseudo/'
	outdir='./TMP_DIR/'
	tstress = .true.
	tprnfor = .true.
/
&SYSTEM
	ibrav = 0,
	celldm(1) = 23.764638453
	nat= 50,
	ntyp= 3,
	ecutwfc = 60,
	occupations = 'smearing'
	smearing = 'm-p'
	degauss = 0.01
	assume_isolated	= '2D'
	!nosym = .true.
	nbnd = 100
/
&ELECTRONS
	diagonalization = 'cg'
	conv_thr = 1.0E-12	
/
&IONS
	ion_dynamics="bfgs"
/

ATOMIC_SPECIES
  B 10.811  B.pbe-n-kjpaw_psl.1.0.0.UPF 
  N 14.0067 N.pbe-n-kjpaw_psl.1.0.0.UPF
  C 12.0107 C.pbe-n-kjpaw_psl.1.0.0.UPF

ATOMIC_POSITIONS (crystal)
B             0.0663083932        0.1328287820        0.5000000000
B             0.0673485011        0.3336200012        0.5000000000
B             0.0660628816        0.5336048948        0.5000000000
B             0.0663819371        0.7335417208        0.5000000000
B             0.0667221902        0.9332778083        0.5000000000
B             0.2663349979        0.1316309183        0.5000000000
B             0.2661014450        0.3295348059        0.5000000000
B             0.2667521586        0.5370325600        0.5000000000
B             0.2650114800        0.7349885192        0.5000000000
B             0.2664582788        0.9336180629        0.5000000000
B             0.4667812895        0.1336876188        0.5000000000
B             0.4660199919        0.3329841885        0.5000000000
C             0.4677355705        0.5322644302        0.5000000000
B             0.4629674406        0.7332478421        0.5000000000
B             0.4663951060        0.9339371182        0.5000000000
B             0.6666903810        0.1332615179        0.5000000000
B             0.6667100042        0.3332899951        0.5000000000
B             0.6670158112        0.5339800084        0.5000000000
B             0.6704651942        0.7338985547        0.5000000000
B             0.6663799985        0.9326514987        0.5000000000
B             0.8667759734        0.1332240259        0.5000000000
B             0.8667384818        0.3333096191        0.5000000000
B             0.8663123818        0.5332187112        0.5000000000
B             0.8683690824        0.7336650028        0.5000000000
B             0.8671712183        0.9336916063        0.5000000000
N             0.1332215157        0.0662850938        0.5000000000
N             0.1328625391        0.2654568240        0.5000000000
N             0.1331770303        0.4675404273        0.5000000000
N             0.1321208846        0.6669681913        0.5000000000
N             0.1331701623        0.8668298364        0.5000000000
N             0.3334847528        0.0663816606        0.5000000000
N             0.3330703713        0.2641559005        0.5000000000
C             0.3386813077        0.4683537318        0.5000000000
N             0.3306164886        0.6693835121        0.5000000000
N             0.3330318088        0.8678791149        0.4999999999
N             0.5334415797        0.0672895236        0.4999999999
N             0.5334908553        0.2672791597        0.5000000000
N             0.5327248360        0.4672751643        0.4999999999
C             0.5316462688        0.6613186928        0.5000000000
N             0.5324595735        0.8668229699        0.5000000000
N             0.7331723348        0.0662676459        0.5000000000
N             0.7333761627        0.2666238366        0.5000000000
N             0.7327208403        0.4665091448        0.5000000000
N             0.7358440998        0.6669296295        0.5000000000
N             0.7345431759        0.8671374606        0.5000000000
N             0.9333569033        0.0666430960        0.5000000000
N             0.9337323534        0.2668276645        0.5000000000
N             0.9327104764        0.4665584211        0.5000000000
N             0.9336183400        0.6665152479        0.5000000000
N             0.9337149056        0.8667784835        0.5000000000
     
 
K_POINTS crystal
36
  0.00000000  0.00000000  0.00000000  2.777778e-02
  0.00000000  0.16666667  0.00000000  2.777778e-02
  0.00000000  0.33333333  0.00000000  2.777778e-02
  0.00000000  0.50000000  0.00000000  2.777778e-02
  0.00000000  0.66666667  0.00000000  2.777778e-02
  0.00000000  0.83333333  0.00000000  2.777778e-02
  0.16666667  0.00000000  0.00000000  2.777778e-02
  0.16666667  0.16666667  0.00000000  2.777778e-02
  0.16666667  0.33333333  0.00000000  2.777778e-02
  0.16666667  0.50000000  0.00000000  2.777778e-02
  0.16666667  0.66666667  0.00000000  2.777778e-02
  0.16666667  0.83333333  0.00000000  2.777778e-02
  0.33333333  0.00000000  0.00000000  2.777778e-02
  0.33333333  0.16666667  0.00000000  2.777778e-02
  0.33333333  0.33333333  0.00000000  2.777778e-02
  0.33333333  0.50000000  0.00000000  2.777778e-02
  0.33333333  0.66666667  0.00000000  2.777778e-02
  0.33333333  0.83333333  0.00000000  2.777778e-02
  0.50000000  0.00000000  0.00000000  2.777778e-02
  0.50000000  0.16666667  0.00000000  2.777778e-02
  0.50000000  0.33333333  0.00000000  2.777778e-02
  0.50000000  0.50000000  0.00000000  2.777778e-02
  0.50000000  0.66666667  0.00000000  2.777778e-02
  0.50000000  0.83333333  0.00000000  2.777778e-02
  0.66666667  0.00000000  0.00000000  2.777778e-02
  0.66666667  0.16666667  0.00000000  2.777778e-02
  0.66666667  0.33333333  0.00000000  2.777778e-02
  0.66666667  0.50000000  0.00000000  2.777778e-02
  0.66666667  0.66666667  0.00000000  2.777778e-02
  0.66666667  0.83333333  0.00000000  2.777778e-02
  0.83333333  0.00000000  0.00000000  2.777778e-02
  0.83333333  0.16666667  0.00000000  2.777778e-02
  0.83333333  0.33333333  0.00000000  2.777778e-02
  0.83333333  0.50000000  0.00000000  2.777778e-02
  0.83333333  0.66666667  0.00000000  2.777778e-02
  0.83333333  0.83333333  0.00000000  2.777778e-02


CELL_PARAMETERS alat
   1.002926374  -0.000628930   0.000000000
  -0.502007051   0.868245718   0.000000000
   0.000000000   0.000000000   1.192775420
