&CONTROL
	calculation = 'scf'
	restart_mode = 'from_scratch'
	prefix = 'hBN'
	pseudo_dir ='./pseudo/'
	outdir='./TMP_DIR/'
	tstress = .true.
	tprnfor = .true.
/
&SYSTEM
	ibrav = 0,
	celldm(1) = 4.754042251
	nat= 2,
	ntyp= 2,
	ecutwfc = 60,
    	ecutrho = 500
	occupations = 'smearing'
	smearing = 'm-p'
	degauss = 0.01
	assume_isolated	= '2D'
	nosym = .true.
/
&ELECTRONS
	diagonalization = 'cg'
	conv_thr = 1.0E-12	
/
&IONS
	ion_dynamics="bfgs"
/

ATOMIC_SPECIES
  B 10.811  B.pbe-n-kjpaw_psl.1.0.0.UPF
  N 14.0067 N.pbe-n-kjpaw_psl.1.0.0.UPF

ATOMIC_POSITIONS (crystal)
B             0.3333330000        0.6666670000        0.5000000000
N             0.6666670000        0.3333330000        0.5000000000
 
K_POINTS automatic 
 6 6 1 0 0 0 

CELL_PARAMETERS alat
   0.999645315   0.000000000   0.000000000
  -0.499822657   0.865718237   0.000000000
   0.000000000   0.000000000   5.962481680
