&input
 zasr='simple',  fildyn='hBN.dyn', flfrc='hBN.fc', !loto_2d=.true.,
/

