&CONTROL
	calculation = 'vc-relax'
	restart_mode = 'from_scratch'
	prefix = 'C2Cn'
	pseudo_dir ='./pseudo/'
	outdir='./TMP_DIR/'
	etot_conv_thr = 1.0E-6		
	forc_conv_thr = 1.94E-6
	tstress = .true.		
/
&SYSTEM
	ibrav = 0,
	celldm(1) = 33.23461096
	nat= 98,
	ntyp= 5,
	ecutwfc = 40.0
	nbnd = 245
	occupations = 'from_input' 
	nspin = 2,			! required for spin polarized calc
	starting_magnetization(3) = 1
	vdw_corr = 'Grimme-D3'
/
&ELECTRONS
	diagonalization = 'cg'
	conv_thr = 1.0E-12		! get to -12
/
&IONS
	ion_dynamics="bfgs"
/
&CELL
	cell_dofree = "2Dxy"
	cell_dynamics = 'bfgs'
	press = 0.0
	press_conv_thr = 0.1
	cell_factor = 4.0
/

ATOMIC_SPECIES
  B  10 B.pbe-n-kjpaw_psl.1.0.0.UPF
  N  14 N.pbe-n-kjpaw_psl.1.0.0.UPF
  C1 12 C.pbe-n-kjpaw_psl.1.0.0.UPF
  C2 12 C.pbe-n-kjpaw_psl.1.0.0.UPF
  C3 12 C.pbe-n-kjpaw_psl.1.0.0.UPF

ATOMIC_POSITIONS {crystal}
B        0.047298876   0.094773882   0.500000000
B        0.047405337   0.237897336   0.500000000
B        0.047369500   0.380880709   0.500000000
B        0.047275199   0.523669400   0.500000000
B        0.047751673   0.666560718   0.500000000
B        0.047968699   0.809578883   0.500000000
B        0.047704975   0.952295032   0.500000000
B        0.189896789   0.094335105   0.500000000
B        0.189418714   0.236825225   0.500000000
B        0.190389035   0.380961463   0.500000000
B        0.189770764   0.523393409   0.500000000
B        0.189908572   0.666644333   0.500000000
B        0.190480075   0.809519921   0.500000000
B        0.190421115   0.952031307   0.500000000
B        0.333140260   0.094238856   0.500000000
B        0.332437466   0.235901655   0.500000000
B        0.332212270   0.378163143   0.500000000
B        0.333066810   0.524645640   0.500000000
B        0.332235633   0.667764348   0.500000000
B        0.333355652   0.810091438   0.500000000
B        0.333439275   0.952248331   0.500000000
B        0.476253388   0.095183058   0.500000000
B        0.475901426   0.237863216   0.500000000
B        0.473937187   0.379411179   0.500000000
C2       0.476629515   0.523370071   0.500000000
B        0.475354284   0.666933176   0.500000000
B        0.476606570   0.810229260   0.500000000
B        0.476330596   0.952724812   0.500000000
B        0.618962501   0.095338908   0.500000000
B        0.618872651   0.238177158   0.500000000
B        0.618741358   0.381258607   0.500000000
B        0.620588788   0.526062728   0.500000000
B        0.621836871   0.667787738   0.500000000
B        0.619038551   0.809611007   0.500000000
B        0.619119285   0.952630523   0.500000000
B        0.761808060   0.095348372   0.500000000
B        0.761748933   0.238251071   0.500000000
B        0.761822842   0.381127341   0.500000000
B        0.762136789   0.524098561   0.500000000
B        0.764098370   0.667562535   0.500000000
B        0.763174812   0.810581315   0.500000000
B        0.762102687   0.952594687   0.500000000
B        0.904785641   0.095214371   0.500000000
B        0.904651641   0.238191949   0.500000000
B        0.904661099   0.381037494   0.500000000
B        0.904816947   0.523746609   0.500000000
B        0.905761153   0.666859734   0.500000000
B        0.905664924   0.810103224   0.500000000
B        0.905226138   0.952701140   0.500000000
N        0.094974367   0.047191787   0.500000000
N        0.094517271   0.189694533   0.500000000
N        0.094896270   0.333132944   0.500000000
N        0.094617096   0.476018158   0.500000000
N        0.094913317   0.618872283   0.500000000
N        0.095362569   0.761797633   0.500000000
N        0.095346443   0.904653539   0.500000000
N        0.237967316   0.047065728   0.500000000
N        0.237324237   0.189227584   0.500000000
N        0.236862191   0.331688068   0.500000000
N        0.237094055   0.476073441   0.500000000
N        0.237272546   0.619132858   0.500000000
N        0.238037347   0.761962662   0.500000000
N        0.238202364   0.904637423   0.500000000
N        0.381098497   0.047309010   0.500000000
N        0.380839887   0.189358555   0.500000000
N        0.380001590   0.330385245   0.500000000
C1       0.383095542   0.475999024   0.500000000
N        0.379681240   0.620318865   0.500000000
N        0.380867179   0.762727467   0.500000000
N        0.381127720   0.905086677   0.500000000
N        0.523895696   0.047857608   0.500000000
N        0.523760733   0.190607653   0.500000000
N        0.523330637   0.333799366   0.500000000
N        0.522386643   0.477613464   0.500000000
C3       0.524001173   0.616904708   0.500000000
N        0.523926595   0.762905928   0.500000000
N        0.523981857   0.905382895   0.500000000
N        0.666661731   0.047900481   0.500000000
N        0.666507341   0.190706619   0.500000000
N        0.666280336   0.333719665   0.500000000
N        0.666200635   0.476669406   0.500000000
N        0.669614754   0.619998469   0.500000000
N        0.668311893   0.763137761   0.500000000
N        0.666867044   0.905103693   0.500000000
N        0.809556094   0.047800898   0.500000000
N        0.809368650   0.190631340   0.500000000
N        0.809293374   0.333492657   0.500000000
N        0.809392340   0.476239276   0.500000000
N        0.810641426   0.619160119   0.500000000
N        0.810772370   0.762675740   0.500000000
N        0.810305434   0.905482698   0.500000000
N        0.952390119   0.047609857   0.500000000
N        0.952199082   0.190443890   0.500000000
N        0.952099506   0.333338268   0.500000000
N        0.952142387   0.476104309   0.500000000
N        0.952690979   0.618901502   0.500000000
N        0.952934247   0.762032676   0.500000000
N        0.952808187   0.905025610   0.500000000


K_POINTS gamma 

CELL_PARAMETERS alat
   1.000288374   0.000428898   0.000000000
  -0.499772750   0.866489598   0.000000000
   0.000000000   0.000000000   1.137203616

OCCUPATIONS
  1.0 1.0 1.0 1.0 1.0 1.0 1.0 1.0
  1.0 1.0 1.0 1.0 1.0 1.0 1.0 1.0
  1.0 1.0 1.0 1.0 1.0 1.0 1.0 1.0
  1.0 1.0 1.0 1.0 1.0 1.0 1.0 1.0
  1.0 1.0 1.0 1.0 1.0 1.0 1.0 1.0
  1.0 1.0 1.0 1.0 1.0 1.0 1.0 1.0
  1.0 1.0 1.0 1.0 1.0 1.0 1.0 1.0
  1.0 1.0 1.0 1.0 1.0 1.0 1.0 1.0
  1.0 1.0 1.0 1.0 1.0 1.0 1.0 1.0
  1.0 1.0 1.0 1.0 1.0 1.0 1.0 1.0
  1.0 1.0 1.0 1.0 1.0 1.0 1.0 1.0
  1.0 1.0 1.0 1.0 1.0 1.0 1.0 1.0
  1.0 1.0 1.0 1.0 1.0 1.0 1.0 1.0
  1.0 1.0 1.0 1.0 1.0 1.0 1.0 1.0
  1.0 1.0 1.0 1.0 1.0 1.0 1.0 1.0
  1.0 1.0 1.0 1.0 1.0 1.0 1.0 1.0
  1.0 1.0 1.0 1.0 1.0 1.0 1.0 1.0
  1.0 1.0 1.0 1.0 1.0 1.0 1.0 1.0
  1.0 1.0 1.0 1.0 1.0 1.0 1.0 1.0
  1.0 1.0 1.0 1.0 1.0 1.0 1.0 1.0
  1.0 1.0 1.0 1.0 1.0 1.0 1.0 1.0
  1.0 1.0 1.0 1.0 1.0 1.0 1.0 1.0
  1.0 1.0 1.0 1.0 1.0 1.0 1.0 1.0
  1.0 1.0 1.0 1.0 1.0 1.0 1.0 1.0
  1.0 1.0 1.0 1.0 0.0 0.0 0.0 0.0
  0.0 0.0 0.0 0.0 0.0 0.0 0.0 0.0
  0.0 0.0 0.0 0.0 0.0 0.0 0.0 0.0
  0.0 0.0 0.0 0.0 0.0 0.0 0.0 0.0
  0.0 0.0 0.0 0.0 0.0 0.0 0.0 0.0
  0.0 0.0 0.0 0.0 0.0 0.0 0.0 0.0
  0.0 0.0 0.0 0.0 0.0
  1.0 1.0 1.0 1.0 1.0 1.0 1.0 1.0
  1.0 1.0 1.0 1.0 1.0 1.0 1.0 1.0
  1.0 1.0 1.0 1.0 1.0 1.0 1.0 1.0
  1.0 1.0 1.0 1.0 1.0 1.0 1.0 1.0
  1.0 1.0 1.0 1.0 1.0 1.0 1.0 1.0
  1.0 1.0 1.0 1.0 1.0 1.0 1.0 1.0
  1.0 1.0 1.0 1.0 1.0 1.0 1.0 1.0
  1.0 1.0 1.0 1.0 1.0 1.0 1.0 1.0
  1.0 1.0 1.0 1.0 1.0 1.0 1.0 1.0
  1.0 1.0 1.0 1.0 1.0 1.0 1.0 1.0
  1.0 1.0 1.0 1.0 1.0 1.0 1.0 1.0
  1.0 1.0 1.0 1.0 1.0 1.0 1.0 1.0
  1.0 1.0 1.0 1.0 1.0 1.0 1.0 1.0
  1.0 1.0 1.0 1.0 1.0 1.0 1.0 1.0
  1.0 1.0 1.0 1.0 1.0 1.0 1.0 1.0
  1.0 1.0 1.0 1.0 1.0 1.0 1.0 1.0
  1.0 1.0 1.0 1.0 1.0 1.0 1.0 1.0
  1.0 1.0 1.0 1.0 1.0 1.0 1.0 1.0
  1.0 1.0 1.0 1.0 1.0 1.0 1.0 1.0
  1.0 1.0 1.0 1.0 1.0 1.0 1.0 1.0
  1.0 1.0 1.0 1.0 1.0 1.0 1.0 1.0
  1.0 1.0 1.0 1.0 1.0 1.0 1.0 1.0
  1.0 1.0 1.0 1.0 1.0 1.0 1.0 1.0
  1.0 1.0 1.0 1.0 1.0 1.0 1.0 1.0
  1.0 1.0 0.0 1.0 0.0 0.0 0.0 0.0
  0.0 0.0 0.0 0.0 0.0 0.0 0.0 0.0
  0.0 0.0 0.0 0.0 0.0 0.0 0.0 0.0
  0.0 0.0 0.0 0.0 0.0 0.0 0.0 0.0
  0.0 0.0 0.0 0.0 0.0 0.0 0.0 0.0
  0.0 0.0 0.0 0.0 0.0 0.0 0.0 0.0
  0.0 0.0 0.0 0.0 0.0
  
