&CONTROL
	calculation = 'vc-relax'
	restart_mode = 'from_scratch'
	prefix = 'C2Cn'
	pseudo_dir ='./pseudo/'
	outdir='./TMP_DIR/'
	etot_conv_thr = 1.0E-6		
	forc_conv_thr = 1.94E-6
	tstress = .true.		
/
&SYSTEM
	ibrav = 0,
	celldm(1) = 33.23461096
	nat= 98,
	ntyp= 5,
	ecutwfc = 40.0
	nbnd = 245
	occupations = 'from_input' 
	nspin = 2,			! required for spin polarized calc
	starting_magnetization(3) = 1
	vdw_corr = 'Grimme-D3'
/
&ELECTRONS
	diagonalization = 'cg'
	conv_thr = 1.0E-12		! get to -12
/
&IONS
	ion_dynamics="bfgs"
/
&CELL
	cell_dofree = "2Dxy"
	cell_dynamics = 'bfgs'
	press = 0.0
	press_conv_thr = 0.1
	cell_factor = 4.0
/

ATOMIC_SPECIES
  B  10 B.pbe-n-kjpaw_psl.1.0.0.UPF
  N  14 N.pbe-n-kjpaw_psl.1.0.0.UPF
  C1 12 C.pbe-n-kjpaw_psl.1.0.0.UPF
  C2 12 C.pbe-n-kjpaw_psl.1.0.0.UPF
  C3 12 C.pbe-n-kjpaw_psl.1.0.0.UPF

ATOMIC_POSITIONS {crystal}
B        0.047429845   0.094849667   0.500000000
B        0.047738704   0.238015485   0.500000000
B        0.047639777   0.381022721   0.500000000
B        0.047233111   0.523749933   0.500000000
B        0.047516855   0.666616176   0.500000000
B        0.047793133   0.809614240   0.500000000
B        0.047660297   0.952339806   0.500000000
B        0.190092966   0.094556361   0.500000000
B        0.189804257   0.237112281   0.500000000
B        0.190907432   0.381118306   0.500000000
B        0.189705599   0.524061929   0.500000000
B        0.189613345   0.666929978   0.500000000
B        0.190309087   0.809691012   0.500000000
B        0.190385851   0.952206965   0.500000000
B        0.333340299   0.094563532   0.500000000
B        0.332902035   0.236245995   0.500000000
B        0.332538032   0.377795470   0.500000000
B        0.333085593   0.526682879   0.500000000
B        0.331740440   0.668259594   0.500000000
B        0.333070068   0.810386771   0.500000000
B        0.333383905   0.952483245   0.500000000
B        0.476362957   0.095248545   0.500000000
B        0.476346487   0.238099287   0.500000000
B        0.475651290   0.380705494   0.500000000
C2       0.476849159   0.523150960   0.500000000
B        0.473317180   0.666914437   0.500000000
B        0.475938065   0.810294380   0.500000000
B        0.476249991   0.952766917   0.500000000
B        0.619026682   0.095175315   0.500000000
B        0.619137708   0.238061337   0.500000000
B        0.619042127   0.380957807   0.500000000
B        0.619294440   0.524348662   0.500000000
B        0.622204478   0.667461956   0.500000000
B        0.618881646   0.809092530   0.500000000
B        0.618977272   0.952360230   0.500000000
B        0.761900585   0.095122167   0.500000000
B        0.761934517   0.238065481   0.500000000
B        0.761938606   0.380862242   0.500000000
B        0.761900587   0.523653396   0.500000000
B        0.763753863   0.667097905   0.500000000
B        0.762887579   0.810195704   0.500000000
B        0.761984466   0.952261281   0.500000000
B        0.904885012   0.095115031   0.500000000
B        0.904877817   0.238099389   0.500000000
B        0.904824697   0.380973285   0.500000000
B        0.904751461   0.523636993   0.500000000
B        0.905436560   0.666659787   0.500000000
B        0.905443781   0.809907118   0.500000000
B        0.905150435   0.952570227   0.500000000
N        0.095067668   0.047332923   0.500000000
N        0.094815727   0.189892773   0.500000000
N        0.095520753   0.333459575   0.500000000
N        0.094684628   0.476165415   0.500000000
N        0.094662470   0.618954920   0.500000000
N        0.095138519   0.761897837   0.500000000
N        0.095244817   0.904755297   0.500000000
N        0.238049747   0.047313540   0.500000000
N        0.237729893   0.189631306   0.500000000
N        0.237445446   0.332048907   0.500000000
N        0.237788275   0.476859452   0.500000000
N        0.236762810   0.619413899   0.500000000
N        0.237755730   0.762244197   0.500000000
N        0.238102126   0.904861523   0.500000000
N        0.381149194   0.047498361   0.500000000
N        0.381054854   0.189611778   0.500000000
N        0.380560842   0.331170336   0.500000000
C1       0.384515777   0.477369274   0.500000000
N        0.378716659   0.621283303   0.500000000
N        0.380586086   0.763237184   0.500000000
N        0.381045090   0.905337533   0.500000000
N        0.523944188   0.047834803   0.500000000
N        0.523953039   0.190557204   0.500000000
N        0.523842751   0.333635160   0.500000000
N        0.523338104   0.476661755   0.500000000
C3       0.522630593   0.615484153   0.500000000
N        0.523140464   0.762211764   0.500000000
N        0.523834552   0.905315350   0.500000000
N        0.666672166   0.047578347   0.500000000
N        0.666705848   0.190443102   0.500000000
N        0.666662914   0.333337096   0.500000000
N        0.666364800   0.476157241   0.500000000
N        0.668829722   0.619439198   0.500000000
N        0.667951160   0.762554542   0.500000000
N        0.666540412   0.904479210   0.500000000
N        0.809563745   0.047529160   0.500000000
N        0.809568394   0.190431642   0.500000000
N        0.809556945   0.333294200   0.500000000
N        0.809442823   0.476047032   0.500000000
N        0.810388227   0.618945186   0.500000000
N        0.810368706   0.762270057   0.500000000
N        0.810107261   0.905184210   0.500000000
N        0.952443192   0.047556776   0.500000000
N        0.952470794   0.190436265   0.500000000
N        0.952421613   0.333327814   0.500000000
N        0.952165217   0.476055850   0.500000000
N        0.952501665   0.618850809   0.500000000
N        0.952686426   0.761950194   0.500000000
N        0.952667085   0.904932344   0.500000000


K_POINTS gamma

CELL_PARAMETERS alat
   1.000639375  -0.000348251   0.000000000
  -0.500621281   0.866405009   0.000000000
   0.000000000   0.000000000   1.137203616
 

OCCUPATIONS
  1.0 1.0 1.0 1.0 1.0 1.0 1.0 1.0
  1.0 1.0 1.0 1.0 1.0 1.0 1.0 1.0
  1.0 1.0 1.0 1.0 1.0 1.0 1.0 1.0
  1.0 1.0 1.0 1.0 1.0 1.0 1.0 1.0
  1.0 1.0 1.0 1.0 1.0 1.0 1.0 1.0
  1.0 1.0 1.0 1.0 1.0 1.0 1.0 1.0
  1.0 1.0 1.0 1.0 1.0 1.0 1.0 1.0
  1.0 1.0 1.0 1.0 1.0 1.0 1.0 1.0
  1.0 1.0 1.0 1.0 1.0 1.0 1.0 1.0
  1.0 1.0 1.0 1.0 1.0 1.0 1.0 1.0
  1.0 1.0 1.0 1.0 1.0 1.0 1.0 1.0
  1.0 1.0 1.0 1.0 1.0 1.0 1.0 1.0
  1.0 1.0 1.0 1.0 1.0 1.0 1.0 1.0
  1.0 1.0 1.0 1.0 1.0 1.0 1.0 1.0
  1.0 1.0 1.0 1.0 1.0 1.0 1.0 1.0
  1.0 1.0 1.0 1.0 1.0 1.0 1.0 1.0
  1.0 1.0 1.0 1.0 1.0 1.0 1.0 1.0
  1.0 1.0 1.0 1.0 1.0 1.0 1.0 1.0
  1.0 1.0 1.0 1.0 1.0 1.0 1.0 1.0
  1.0 1.0 1.0 1.0 1.0 1.0 1.0 1.0
  1.0 1.0 1.0 1.0 1.0 1.0 1.0 1.0
  1.0 1.0 1.0 1.0 1.0 1.0 1.0 1.0
  1.0 1.0 1.0 1.0 1.0 1.0 1.0 1.0
  1.0 1.0 1.0 1.0 1.0 1.0 1.0 1.0
  1.0 1.0 1.0 1.0 0.0 0.0 0.0 0.0
  0.0 0.0 0.0 0.0 0.0 0.0 0.0 0.0
  0.0 0.0 0.0 0.0 0.0 0.0 0.0 0.0
  0.0 0.0 0.0 0.0 0.0 0.0 0.0 0.0
  0.0 0.0 0.0 0.0 0.0 0.0 0.0 0.0
  0.0 0.0 0.0 0.0 0.0 0.0 0.0 0.0
  0.0 0.0 0.0 0.0 0.0
  1.0 1.0 1.0 1.0 1.0 1.0 1.0 1.0
  1.0 1.0 1.0 1.0 1.0 1.0 1.0 1.0
  1.0 1.0 1.0 1.0 1.0 1.0 1.0 1.0
  1.0 1.0 1.0 1.0 1.0 1.0 1.0 1.0
  1.0 1.0 1.0 1.0 1.0 1.0 1.0 1.0
  1.0 1.0 1.0 1.0 1.0 1.0 1.0 1.0
  1.0 1.0 1.0 1.0 1.0 1.0 1.0 1.0
  1.0 1.0 1.0 1.0 1.0 1.0 1.0 1.0
  1.0 1.0 1.0 1.0 1.0 1.0 1.0 1.0
  1.0 1.0 1.0 1.0 1.0 1.0 1.0 1.0
  1.0 1.0 1.0 1.0 1.0 1.0 1.0 1.0
  1.0 1.0 1.0 1.0 1.0 1.0 1.0 1.0
  1.0 1.0 1.0 1.0 1.0 1.0 1.0 1.0
  1.0 1.0 1.0 1.0 1.0 1.0 1.0 1.0
  1.0 1.0 1.0 1.0 1.0 1.0 1.0 1.0
  1.0 1.0 1.0 1.0 1.0 1.0 1.0 1.0
  1.0 1.0 1.0 1.0 1.0 1.0 1.0 1.0
  1.0 1.0 1.0 1.0 1.0 1.0 1.0 1.0
  1.0 1.0 1.0 1.0 1.0 1.0 1.0 1.0
  1.0 1.0 1.0 1.0 1.0 1.0 1.0 1.0
  1.0 1.0 1.0 1.0 1.0 1.0 1.0 1.0
  1.0 1.0 1.0 1.0 1.0 1.0 1.0 1.0
  1.0 1.0 1.0 1.0 1.0 1.0 1.0 1.0
  1.0 1.0 1.0 1.0 1.0 1.0 1.0 1.0
  1.0 1.0 1.0 0.0 0.0 0.0 0.0 0.0
  0.0 0.0 0.0 0.0 0.0 0.0 0.0 0.0
  0.0 0.0 0.0 0.0 0.0 0.0 0.0 0.0
  0.0 0.0 0.0 0.0 0.0 0.0 0.0 0.0
  0.0 0.0 0.0 0.0 0.0 0.0 0.0 0.0
  0.0 0.0 0.0 0.0 0.0 0.0 0.0 0.0
  0.0 0.0 0.0 0.0 0.0
  
