&CONTROL
	calculation = 'vc-relax'
	restart_mode = 'from_scratch'
	prefix = 'C2Cn'
	pseudo_dir ='./pseudo/'
	outdir='./TMP_DIR/'
	etot_conv_thr = 1.0E-5		
	forc_conv_thr = 1.94E-4
	tstress = .true.		
/
&SYSTEM
	ibrav = 0,
	celldm(1) = 33.23461096
	nat= 98,
	ntyp= 5,
	ecutwfc = 40.0
	nbnd = 245
	occupations = 'from_input' 
	nspin = 2,			! required for spin polarized calc
	starting_magnetization(3) = 1
	vdw_corr = 'Grimme-D3'
/
&ELECTRONS
	diagonalization = 'cg'
	conv_thr = 1.0E-8		! get to -12
/
&IONS
	ion_dynamics="bfgs"
/
&CELL
	cell_dofree = "2Dxy"
	cell_dynamics = 'bfgs'
	press = 0.0
	press_conv_thr = 0.1
	cell_factor = 4.0
/

ATOMIC_SPECIES
  B  10 B.pbe-n-kjpaw_psl.1.0.0.UPF
  N  14 N.pbe-n-kjpaw_psl.1.0.0.UPF
  C1 12 C.pbe-n-kjpaw_psl.1.0.0.UPF
  C2 12 C.pbe-n-kjpaw_psl.1.0.0.UPF
  C3 12 C.pbe-n-kjpaw_psl.1.0.0.UPF

ATOMIC_POSITIONS {crystal}
B        0.047326114   0.094864538   0.500000000
B        0.047517029   0.237992787   0.500000000
B        0.047470238   0.380925783   0.500000000
B        0.047272385   0.523707539   0.500000000
B        0.047692304   0.666654657   0.500000000
B        0.047864422   0.809663938   0.500000000
B        0.047643581   0.952356371   0.500000000
B        0.189912422   0.094420803   0.500000000
B        0.189545291   0.236952004   0.500000000
B        0.190534087   0.381093596   0.500000000
B        0.189797688   0.523517188   0.500000000
B        0.189827997   0.666762211   0.500000000
B        0.190355527   0.809644492   0.500000000
B        0.190336049   0.952135540   0.500000000
B        0.333175369   0.094293309   0.500000000
B        0.332575161   0.235969114   0.500000000
B        0.332359846   0.378264824   0.500000000
B        0.333086092   0.524738345   0.500000000
B        0.332166864   0.667833333   0.500000000
B        0.333237911   0.810171973   0.500000000
B        0.333345397   0.952307672   0.500000000
B        0.476288450   0.095202043   0.500000000
B        0.476026012   0.237841398   0.500000000
B        0.474071596   0.379396253   0.500000000
C2       0.476640545   0.523362592   0.500000000
B        0.475262318   0.666914114   0.500000000
B        0.476483018   0.810202193   0.500000000
B        0.476292493   0.952727550   0.500000000
B        0.618990651   0.095261819   0.500000000
B        0.618981257   0.238096220   0.500000000
B        0.618857738   0.381142497   0.500000000
B        0.620603960   0.525929018   0.500000000
B        0.621735093   0.667640120   0.500000000
B        0.618906323   0.809465619   0.500000000
B        0.619074243   0.952529623   0.500000000
B        0.761841758   0.095258509   0.500000000
B        0.761841107   0.238158865   0.500000000
B        0.761903767   0.381018777   0.500000000
B        0.762158518   0.523974029   0.500000000
B        0.764030649   0.667424820   0.500000000
B        0.763047653   0.810454486   0.500000000
B        0.762007040   0.952482801   0.500000000
B        0.904803888   0.095196052   0.500000000
B        0.904741421   0.238158182   0.500000000
B        0.904738133   0.381009354   0.500000000
B        0.904797890   0.523711550   0.500000000
B        0.905706606   0.666824643   0.500000000
B        0.905578955   0.810087473   0.500000000
B        0.905135334   0.952673784   0.500000000
N        0.094968223   0.047264984   0.500000000
N        0.094625004   0.189792567   0.500000000
N        0.095043700   0.333227180   0.500000000
N        0.094654653   0.476083773   0.500000000
N        0.094831214   0.618942535   0.500000000
N        0.095246646   0.761897759   0.500000000
N        0.095260628   0.904739365   0.500000000
N        0.237973123   0.047165174   0.500000000
N        0.237430449   0.189322110   0.500000000
N        0.237012570   0.331814668   0.500000000
N        0.237149036   0.476196043   0.500000000
N        0.237221601   0.619252867   0.500000000
N        0.237910627   0.762089246   0.500000000
N        0.238102197   0.904753328   0.500000000
N        0.381105170   0.047359081   0.500000000
N        0.380943483   0.189400753   0.500000000
N        0.380137069   0.330443566   0.500000000
C1       0.383127677   0.476064839   0.500000000
N        0.379622017   0.620377295   0.500000000
N        0.380746884   0.762778330   0.500000000
N        0.381057444   0.905168827   0.500000000
N        0.523907732   0.047851908   0.500000000
N        0.523865034   0.190592860   0.500000000
N        0.523451545   0.333759949   0.500000000
N        0.522415619   0.477583592   0.500000000
C3       0.523933775   0.616870544   0.500000000
N        0.523803808   0.762851160   0.500000000
N        0.523916185   0.905345463   0.500000000
N        0.666678052   0.047805057   0.500000000
N        0.666596437   0.190614470   0.500000000
N        0.666383157   0.333616841   0.500000000
N        0.666240053   0.476548148   0.500000000
N        0.669556482   0.619862565   0.500000000
N        0.668185659   0.762987832   0.500000000
N        0.666772957   0.904956571   0.500000000
N        0.809563811   0.047709093   0.500000000
N        0.809455376   0.190544686   0.500000000
N        0.809385556   0.333403583   0.500000000
N        0.809407176   0.476134929   0.500000000
N        0.810599390   0.619056476   0.500000000
N        0.810678205   0.762569716   0.500000000
N        0.810207635   0.905375167   0.500000000
N        0.952393524   0.047606579   0.500000000
N        0.952291029   0.190436295   0.500000000
N        0.952195054   0.333321991   0.500000000
N        0.952148130   0.476092278   0.500000000
N        0.952640961   0.618894835   0.500000000
N        0.952834921   0.762026870   0.500000000
N        0.952735129   0.905031859   0.500000000


K_POINTS gamma 

CELL_PARAMETERS alat
   1.000260042   0.000426780   0.000000000
  -0.499760418   0.866463962   0.000000000
   0.000000000   0.000000000   1.137203616


OCCUPATIONS
  1.0 1.0 1.0 1.0 1.0 1.0 1.0 1.0
  1.0 1.0 1.0 1.0 1.0 1.0 1.0 1.0
  1.0 1.0 1.0 1.0 1.0 1.0 1.0 1.0
  1.0 1.0 1.0 1.0 1.0 1.0 1.0 1.0
  1.0 1.0 1.0 1.0 1.0 1.0 1.0 1.0
  1.0 1.0 1.0 1.0 1.0 1.0 1.0 1.0
  1.0 1.0 1.0 1.0 1.0 1.0 1.0 1.0
  1.0 1.0 1.0 1.0 1.0 1.0 1.0 1.0
  1.0 1.0 1.0 1.0 1.0 1.0 1.0 1.0
  1.0 1.0 1.0 1.0 1.0 1.0 1.0 1.0
  1.0 1.0 1.0 1.0 1.0 1.0 1.0 1.0
  1.0 1.0 1.0 1.0 1.0 1.0 1.0 1.0
  1.0 1.0 1.0 1.0 1.0 1.0 1.0 1.0
  1.0 1.0 1.0 1.0 1.0 1.0 1.0 1.0
  1.0 1.0 1.0 1.0 1.0 1.0 1.0 1.0
  1.0 1.0 1.0 1.0 1.0 1.0 1.0 1.0
  1.0 1.0 1.0 1.0 1.0 1.0 1.0 1.0
  1.0 1.0 1.0 1.0 1.0 1.0 1.0 1.0
  1.0 1.0 1.0 1.0 1.0 1.0 1.0 1.0
  1.0 1.0 1.0 1.0 1.0 1.0 1.0 1.0
  1.0 1.0 1.0 1.0 1.0 1.0 1.0 1.0
  1.0 1.0 1.0 1.0 1.0 1.0 1.0 1.0
  1.0 1.0 1.0 1.0 1.0 1.0 1.0 1.0
  1.0 1.0 1.0 1.0 1.0 1.0 1.0 1.0
  1.0 1.0 1.0 1.0 0.0 0.0 0.0 0.0
  0.0 0.0 0.0 0.0 0.0 0.0 0.0 0.0
  0.0 0.0 0.0 0.0 0.0 0.0 0.0 0.0
  0.0 0.0 0.0 0.0 0.0 0.0 0.0 0.0
  0.0 0.0 0.0 0.0 0.0 0.0 0.0 0.0
  0.0 0.0 0.0 0.0 0.0 0.0 0.0 0.0
  0.0 0.0 0.0 0.0 0.0
  1.0 1.0 1.0 1.0 1.0 1.0 1.0 1.0
  1.0 1.0 1.0 1.0 1.0 1.0 1.0 1.0
  1.0 1.0 1.0 1.0 1.0 1.0 1.0 1.0
  1.0 1.0 1.0 1.0 1.0 1.0 1.0 1.0
  1.0 1.0 1.0 1.0 1.0 1.0 1.0 1.0
  1.0 1.0 1.0 1.0 1.0 1.0 1.0 1.0
  1.0 1.0 1.0 1.0 1.0 1.0 1.0 1.0
  1.0 1.0 1.0 1.0 1.0 1.0 1.0 1.0
  1.0 1.0 1.0 1.0 1.0 1.0 1.0 1.0
  1.0 1.0 1.0 1.0 1.0 1.0 1.0 1.0
  1.0 1.0 1.0 1.0 1.0 1.0 1.0 1.0
  1.0 1.0 1.0 1.0 1.0 1.0 1.0 1.0
  1.0 1.0 1.0 1.0 1.0 1.0 1.0 1.0
  1.0 1.0 1.0 1.0 1.0 1.0 1.0 1.0
  1.0 1.0 1.0 1.0 1.0 1.0 1.0 1.0
  1.0 1.0 1.0 1.0 1.0 1.0 1.0 1.0
  1.0 1.0 1.0 1.0 1.0 1.0 1.0 1.0
  1.0 1.0 1.0 1.0 1.0 1.0 1.0 1.0
  1.0 1.0 1.0 1.0 1.0 1.0 1.0 1.0
  1.0 1.0 1.0 1.0 1.0 1.0 1.0 1.0
  1.0 1.0 1.0 1.0 1.0 1.0 1.0 1.0
  1.0 1.0 1.0 1.0 1.0 1.0 1.0 1.0
  1.0 1.0 1.0 1.0 1.0 1.0 1.0 1.0
  1.0 1.0 1.0 1.0 1.0 1.0 1.0 1.0
  1.0 1.0 0.0 1.0 0.0 0.0 0.0 0.0
  0.0 0.0 0.0 0.0 0.0 0.0 0.0 0.0
  0.0 0.0 0.0 0.0 0.0 0.0 0.0 0.0
  0.0 0.0 0.0 0.0 0.0 0.0 0.0 0.0
  0.0 0.0 0.0 0.0 0.0 0.0 0.0 0.0
  0.0 0.0 0.0 0.0 0.0 0.0 0.0 0.0
  0.0 0.0 0.0 0.0 0.0
  
